Li27 Co27 O54
1.0
  14.1209132099999994   -4.2168848700000003   -0.0134986200000000
  14.1209132099999994    4.2168848700000003   -0.0134986200000000
  12.8685137100000002    0.0000000000000000    7.1821868699999998
Li Co O
27 27 54
direct
  -0.0079467850496321   -0.0016718346524570    0.0117196192419746 Li
  -0.0013643860719925    0.0048212729924749    0.3294944171938488 Li
   0.0112388520633585   -0.0062465778169039    0.6612991306158713 Li
   0.0001010779193969    0.3373973592065920   -0.0044497432580367 Li
  -0.0088128487515464    0.3385794780259685    0.3362207999259875 Li
  -0.0019660237300704    0.3357526864938048    0.6672331667489625 Li
  -0.0085924791694250    0.6767033281433237   -0.0003056699645579 Li
  -0.0043986332852231    0.6617906402764672    0.3378328267770350 Li
   0.0010345739529665    0.6621988845862889    0.6756068618509317 Li
   0.3338894401669653    0.0029802535619447   -0.0040037446428969 Li
   0.3263738507905908    0.0019354231540856    0.3374557629074666 Li
   0.3341051941608352    0.0025624893876319    0.6662972854232554 Li
   0.3291007786448941    0.3276530318284757    0.0067394843769545 Li
   0.3419181725004097    0.3335760144629146    0.3253692774673292 Li
   0.3285354282267325    0.3348955452857348    0.6717070800209979 Li
   0.3365721120835162    0.6786790404384330   -0.0112651258507330 Li
   0.3280450040677345    0.6687210529900898    0.3359093524545766 Li
   0.3357699784907091    0.6709684397827306    0.6636347974160047 Li
   0.6682753541430980    0.9959692474383020    0.0037435890843678 Li
   0.6718259565330960   -0.0066635330048123    0.3371596201670207 Li
   0.6583401886641842    1.0029679398883415    0.6706773664981585 Li
   0.6732432495929073    0.3272322299592884    0.0050614571542566 Li
   0.6661267524748955    0.3335271525143361    0.3355711611733335 Li
   0.6672513845669633    0.3318619934301893    0.6679033404194622 Li
   0.6676606723684508    0.6630985114459601   -0.0020050090810844 Li
   0.6609429280405646    0.6672979378907501    0.3333794850721175 Li
   0.6668849032346604    0.6636992969446911    0.6692237704340843 Li
   0.1560121379303586    0.1663797059692881    0.1737313005021255 Co
   0.1710590823753941    0.1612702123935655    0.5060296775317420 Co
   0.1667967696780660    0.1682935912398709    0.8273741806598792 Co
   0.1578140747568306    0.4967316635011818    0.1758041843609923 Co
   0.1530249127364757    0.5073786701549963    0.5071049995770945 Co
   0.1732814385272086    0.4963362123207493    0.8305402676118112 Co
   0.1645956054956029    0.8322102785332508    0.1675348792869378 Co
   0.1698784934792822    0.8362186276733643    0.4962004846105639 Co
   0.1759058402169073    0.8246505575442349    0.8315890171225375 Co
   0.5086755754729689    0.1620023764055621    0.1561408592855111 Co
   0.5003319899527970    0.1608168311210507    0.5049819390768411 Co
   0.5046778536150480    0.1728599656401954    0.8254166178382851 Co
   0.5096969169777825    0.4966846324105280    0.1589778999514539 Co
   0.4929637359900918    0.5116289236508885    0.4965002390676190 Co
   0.5064148748314690    0.4983109033575667    0.8293992284789763 Co
   0.4963138289510330    0.8322652170347903    0.1711506819838172 Co
   0.5013520090666034    0.8343215801970559    0.4968467794828994 Co
   0.5072627092324149    0.8259026092880555    0.8293708767793703 Co
   0.8383574299300899    0.1648933247336173    0.1647099746937619 Co
   0.8361736708350436    0.1689205533092119    0.4963203408254673 Co
   0.8366776058283049    0.1689498522078018    0.8266625328473772 Co
   0.8325570029147840    0.4941370541052281    0.1764996645104591 Co
   0.8298602364516691    0.5068929570020938    0.5016078272018971 Co
   0.8392818306745877    0.5057738907982714    0.8195264440962400 Co
   0.8406159871775628    0.8299014675708399    0.1616694927192874 Co
   0.8423958890545060    0.8278496496419012    0.4971202442590975 Co
   0.8377001011524488    0.8339975287867909    0.8295885297932576 Co
   0.2522753922241170    0.2513702711546937    0.2555659248205386 O
   0.2446977060985189    0.2563723808215326    0.5951753891057164 O
   0.2425602632131839    0.2597499695993417    0.9223841837929305 O
   0.2460343214710297    0.5799707019916286    0.2603013795550137 O
   0.2550671008471542    0.5846443491031599    0.5928747625760364 O
   0.2592973761048145    0.5794027894955218    0.9227960486607704 O
   0.2520818828365484    0.9162211004495119    0.2634762994023163 O
   0.2564508338625899    0.9197819749800451    0.5798932380710254 O
   0.2496963276583947    0.9110115348972398    0.9290034638981514 O
   0.5800030827627480    0.2546050120557614    0.2547068023480175 O
   0.5792907271576941    0.2446649179441677    0.5994498122589766 O
   0.5830285021833509    0.2480992236088728    0.9322908651190589 O
   0.5973859073448817    0.5867195144905332    0.2461086051593843 O
   0.5858627194832646    0.5921158904391283    0.5820946694867131 O
   0.5856929690423880    0.5837985674812851    0.9229032540230706 O
   0.5841593877050801    0.9167287230035088    0.2620556923076073 O
   0.5892046135261104    0.9299803371644837    0.5775424940603063 O
   0.5833250889986650    0.9215394567033566    0.9237641587193841 O
   0.9307502626359587    0.2526140869752837    0.2473557787305090 O
   0.9120843987786960    0.2602040413935878    0.5840635081697408 O
   0.9229587709304092    0.2538552518662442    0.9133554923660138 O
   0.9259042227028595    0.5822666515014766    0.2539442157960568 O
   0.9224852856105905    0.5826476322893066    0.5853939989836294 O
   0.9298592082804553    0.5833693886996083    0.9126262427485582 O
   0.9174976208747069    0.9281838252650271    0.2458466447097618 O
   0.9207171940993177    0.9268066063429441    0.5838766101333974 O
   0.9190214521927135    0.9162602344044742    0.9240198077195795 O
   0.0845942106802538    0.0721770240080180    0.0873255717939162 O
   0.0856478519064940    0.0714155992056747    0.4158322113164271 O
   0.0816077239009156    0.0701327399743751    0.7568715445192906 O
   0.0836619717023320    0.4094801610534657    0.0832772889241653 O
   0.0782499866672190    0.4187731327124041    0.4115517493780799 O
   0.0749056516406274    0.4166803508470399    0.7516476848201723 O
   0.0850530875264376    0.7468311833469203    0.0737590805285441 O
   0.0862778708622982    0.7425963221975709    0.4114452628136623 O
   0.0823129654008103    0.7379716442490205    0.7521567245453564 O
   0.4175869098537541    0.0786377595492642    0.0802707160285876 O
   0.4156893324772910    0.0765937527230699    0.4093124209649077 O
   0.4137796105456015    0.0800227962734497    0.7422675909362939 O
   0.4087454972672442    0.4128816276887539    0.0853529947479894 O
   0.4107463236270030    0.4197318890888405    0.4104834989856659 O
   0.4164395538362481    0.4021518160121696    0.7552570246110265 O
   0.4124321777659488    0.7451924940649498    0.0831066458254498 O
   0.4199520713517698    0.7437913709442713    0.4104548043111911 O
   0.4196980066711439    0.7389509224807005    0.7484805855302451 O
   0.7506653914211349    0.0815137112371421    0.0732928569514095 O
   0.7506606093963536    0.0808467528322511    0.4088115601382232 O
   0.7503404891671217    0.0803196782960564    0.7412426509285296 O
   0.7438496474645592    0.4106839307750216    0.0893359440287589 O
   0.7459420801755487    0.4216599479302628    0.4011115299973079 O
   0.7583922226275366    0.4049964145544831    0.7465589253129253 O
   0.7328264645698905    0.7489457245290442    0.0871067920908501 O
   0.7435213635055901    0.7506994463718631    0.4093628628420673 O
   0.7435977376279959    0.7478358082432621    0.7487864987660714 O
