Li27 Co27 O54
1.0
  14.1209132099999994   -4.2168848700000003   -0.0134986200000000
  14.1209132099999994    4.2168848700000003   -0.0134986200000000
  12.8685137100000002    0.0000000000000000    7.1821868699999998
Li Co O
27 27 54
direct
   0.0001809742770423   -0.0030104712694358    0.0024529847816443 Li
   0.0018671903091246    0.0030861695728620    0.3264142882289274 Li
  -0.0012512190916261    0.0029495391230506    0.6651007206092824 Li
   0.0036385292213181    0.3347336183148870   -0.0038975331811555 Li
   0.0055801722710966    0.3334853584567348    0.3259617615185314 Li
   0.0010455265826788    0.3281877163001793    0.6669637092419316 Li
   0.0055241324050780    0.6625236726099957    0.0034622356621106 Li
  -0.0032392998723359    0.6721149960501678    0.3244518350525666 Li
  -0.0041879052362031    0.6656105463956303    0.6703574983477643 Li
   0.3270994675188706   -0.0053737829814392    0.0103550226972878 Li
   0.3288353719269198   -0.0082847503001855    0.3426089209523572 Li
   0.3323486858775423    0.0007893031123603    0.6583563670344332 Li
   0.3433874571375383    0.3298567721205579   -0.0061853303123483 Li
   0.3312995845508588    0.3281659325145413    0.3369676105347955 Li
   0.3339194440639475    0.3367932290001382    0.6672821816948360 Li
   0.3299591820633211    0.6671516817057418    0.0007036926629042 Li
   0.3396279375655537    0.6579511063727224    0.3376688550393524 Li
   0.3303727159141011    0.6716575103067037    0.6654902317500317 Li
   0.6742016319167133    1.0020004692473756   -0.0096273340235995 Li
   0.6617783574284533   -0.0021621600065400    0.3377306183557079 Li
   0.6691132005161722    0.9966847134181394    0.6689395600823007 Li
   0.6723956112289192    0.3326867498542467   -0.0055409028018915 Li
   0.6753438738165813    0.3363801824359030    0.3271831994996034 Li
   0.6715319039814028    0.3320051493174870    0.6659268127008217 Li
   0.6556277844110426    0.6754943134601787    0.0015950722212761 Li
   0.6604906195476855    0.6672365451197414    0.3363843420260622 Li
   0.6609363404698381    0.6544822386613616    0.6786373574536197 Li
   0.1613318742956438    0.1642557950592484    0.1708262144614699 Co
   0.1670219865864210    0.1722203347926787    0.4965849478387168 Co
   0.1708509169790310    0.1557382367468267    0.8335874384875965 Co
   0.1756786656393623    0.4978891353597636    0.1644079126633258 Co
   0.1734007961329743    0.5056567600130393    0.4920332774598685 Co
   0.1690995211450055    0.5000687678242736    0.8287386572587270 Co
   0.1564301616373280    0.8397774386750881    0.1662147462632798 Co
   0.1642631710473210    0.8300364876782983    0.5096799605873357 Co
   0.1725933633090155    0.8386820142033196    0.8192396052059510 Co
   0.5010566479756454    0.1691258797660437    0.1592206800476512 Co
   0.5012105242276326    0.1660751683335263    0.5009792525457485 Co
   0.4951441274778046    0.1661186369279942    0.8399534743599235 Co
   0.5026770916439232    0.4996667419226860    0.1648330746303506 Co
   0.4965135866313186    0.5080978984795343    0.4951351193609115 Co
   0.5011401522894556    0.4996080244085171    0.8308226854032588 Co
   0.5079254445320162    0.8198407313314194    0.1685954266232768 Co
   0.4926326842283392    0.8294426454316388    0.5128074394610243 Co
   0.5000866937038362    0.8393778505508578    0.8303764510621517 Co
   0.8358047585106648    0.1678779936615019    0.1633951402624897 Co
   0.8343582488032280    0.1697446008276996    0.4978600143368627 Co
   0.8407865189087991    0.1568064136528070    0.8312474384885127 Co
   0.8358785491602090    0.5020315555878043    0.1644986210375760 Co
   0.8308744653942957    0.5004155510020796    0.5032408349410519 Co
   0.8288829233729265    0.5040163634678775    0.8336253401272786 Co
   0.8426001749710536    0.8323698734876522    0.1554246303930124 Co
   0.8337773806487112    0.8332108361187627    0.4985112265741890 Co
   0.8320373873824527    0.8339544640197474    0.8327031031943787 Co
   0.2635538202080512    0.2455259537733369    0.2529250062734327 O
   0.2482633728687385    0.2542324187800192    0.5903611899950283 O
   0.2517565807463320    0.2554304592670175    0.9179211726849248 O
   0.2385201429839834    0.5990997421056964    0.2557755145348081 O
   0.2476085458855466    0.5889195067108841    0.5930346578130863 O
   0.2471978561329014    0.5876729447507008    0.9213859117651153 O
   0.2531210469248661    0.9186331872363795    0.2537572138148703 O
   0.2606663178673376    0.9154594465086667    0.5860193000835003 O
   0.2516178700797180    0.9234569278919873    0.9196758442466956 O
   0.5894384990695529    0.2497927392661228    0.2561302131515488 O
   0.5855641871244999    0.2508427628267252    0.5900429456616190 O
   0.5816586633910268    0.2613231767896564    0.9168281989497465 O
   0.5831048190289815    0.5926508718459345    0.2499919017603630 O
   0.5730676528572318    0.5889052158105194    0.6021611695498394 O
   0.5829501158588952    0.5760536276462729    0.9370550985409833 O
   0.5809729952537789    0.9236004368040039    0.2541057584741612 O
   0.5898167452840656    0.9196846731793950    0.5817990781675111 O
   0.5821154728451718    0.9141802156830907    0.9283259410167147 O
   0.9239664294061286    0.2528494768031472    0.2569358526151039 O
   0.9280878750816721    0.2548659193252202    0.5802919274753986 O
   0.9231825999046694    0.2478434546747908    0.9252479256947035 O
   0.9246784224232406    0.5815078686311416    0.2544473149958470 O
   0.9148589575638307    0.5939797358538228    0.5847580713481888 O
   0.9223952437616040    0.5963451130958873    0.9140752744550534 O
   0.9209043772622738    0.9230140498189261    0.2503914719744020 O
   0.9195966316496349    0.9232547340701225    0.5794462802158795 O
   0.9227371037773023    0.9259965038636536    0.9161217694893745 O
   0.0793240232653685    0.0789199078931587    0.0778478773981654 O
   0.0781530532643205    0.0825765258740148    0.4140128986303269 O
   0.0864892452260603    0.0852180002292982    0.7360101632670161 O
   0.0732441602063768    0.4095869276661797    0.0893746524967774 O
   0.0730220198283167    0.4211309094119273    0.4169471684282106 O
   0.0748584548792529    0.4134238934637253    0.7512882538686657 O
   0.0768147201486039    0.7409769234819229    0.0872360602697163 O
   0.0796160953298715    0.7365505042838456    0.4240681684509170 O
   0.0762117611307129    0.7439819318881750    0.7533059879932931 O
   0.4119529022478302    0.0811732645620443    0.0833657011296243 O
   0.4181195374294618    0.0817511097332937    0.4022380299023532 O
   0.4095193807291918    0.0874734937039294    0.7448223794339606 O
   0.4123336754427881    0.4153262163761859    0.0796426140541861 O
   0.4030776767041582    0.4251114133684737    0.4120966553618939 O
   0.4213456166190067    0.4056016781725100    0.7432536465980252 O
   0.4167735867969000    0.7385499492530444    0.0859825274046884 O
   0.3993393869504292    0.7464419050872073    0.4281599366615528 O
   0.4149602657325349    0.7513656191609426    0.7424153828471981 O
   0.7494457355395217    0.0749878334002116    0.0798467701868718 O
   0.7523811962917505    0.0744838760587694    0.4124806580208792 O
   0.7448471826649152    0.0751413000684907    0.7554926665704886 O
   0.7422028188016920    0.4050571266840610    0.0921716389205086 O
   0.7486898107860833    0.4135686501794294    0.4144535489380055 O
   0.7479717896067198    0.4126926298650471    0.7494898470296876 O
   0.7396256015525295    0.7461028084911154    0.0884964439691384 O
   0.7516163308286419    0.7453023578595916    0.4118604249207840 O
   0.7523425673238692    0.7439053481515533    0.7445008259440941 O
