Li27 Co27 O54
1.0
  14.1209132099999994   -4.2168848700000003   -0.0134986200000000
  14.1209132099999994    4.2168848700000003   -0.0134986200000000
  12.8685137100000002    0.0000000000000000    7.1821868699999998
Li Co O
27 27 54
direct
   0.0021161407410165    0.0018137704627394   -0.0048284612923159 Li
   0.0049134806804610    0.0078128455081930    0.3254529328378375 Li
  -0.0052109701883908    0.0037565531359951    0.6643911793201626 Li
  -0.0017483604939212    0.3347371236053410   -0.0004382590663378 Li
  -0.0042508026802366    0.3391016904998284    0.3284622038372293 Li
  -0.0060082644340740    0.3376289482314647    0.6695285708240620 Li
   0.0042613306457387    0.6743819614854505   -0.0062693767321342 Li
   0.0024764150958284    0.6568688599638915    0.3392947920386447 Li
  -0.0009030370946901    0.6693375267550387    0.6653977411614823 Li
   0.3339025367208319    0.0048031822523848   -0.0032229648967814 Li
   0.3340116239600940    0.0025073879645691    0.3328147822304874 Li
   0.3344918046951981    0.0063760359174149    0.6592099354368999 Li
   0.3278923697243096    0.3445102071729290   -0.0035026326258484 Li
   0.3307692163426276    0.3382732277473389    0.3365515817325808 Li
   0.3337258243148591    0.3315844921054398    0.6683034785956445 Li
   0.3397729028272157    0.6626411784774712   -0.0061581681664184 Li
   0.3365152889331661    0.6587362133800319    0.3372835080709775 Li
   0.3307836671187252    0.6716681958746731    0.6618479731245362 Li
   0.6720335179886704    0.9963463515829298    0.0000442613422686 Li
   0.6780968539470626   -0.0043677847288116    0.3325515268827804 Li
   0.6674573585044565    0.9943570911738666    0.6706381173287800 Li
   0.6739920649598138    0.3358885630795408   -0.0091237434910516 Li
   0.6699037902620626    0.3304761819674905    0.3332925482265663 Li
   0.6662797190517047    0.3329770180192717    0.6636627956792791 Li
   0.6541848208007142    0.6703517612774604    0.0090735125712653 Li
   0.6644330665039860    0.6695847379868534    0.3349369580094773 Li
   0.6641073568738254    0.6689946762145595    0.6658397420166298 Li
   0.1637905378837348    0.1692981105061981    0.1692011123941321 Co
   0.1640875300733524    0.1674099961996380    0.4997231509630235 Co
   0.1574785858817452    0.1741912760175162    0.8317430363105881 Co
   0.1709045680514842    0.4921984775347396    0.1719380648553931 Co
   0.1751586539750677    0.4924973967799298    0.4967882786649517 Co
   0.1694390356764389    0.4980484602484073    0.8323713341579926 Co
   0.1825033921614126    0.8263196631667664    0.1615306573353138 Co
   0.1737070319355055    0.8229436878591155    0.4990698319643370 Co
   0.1633993485980231    0.8303443904514960    0.8379363865668236 Co
   0.5052750139603639    0.1617897582021768    0.1648808741845952 Co
   0.4990526999996198    0.1639418323822868    0.5049226442680551 Co
   0.4950880012308627    0.1681576093686176    0.8339074272304323 Co
   0.5034693709364831    0.4932353095529481    0.1745529204252955 Co
   0.5026194952432186    0.5040859834256690    0.4933344066227388 Co
   0.4922567516804461    0.5035029012449436    0.8365510304582959 Co
   0.5016605322352464    0.8244152865094355    0.1717552127368038 Co
   0.5029268986088781    0.8353197607190537    0.4973292593930566 Co
   0.4935850395980630    0.8333907056289445    0.8390753832581637 Co
   0.8326283927656728    0.1580689409059228    0.1767781806497076 Co
   0.8277324572929218    0.1718239002973757    0.4991347566137962 Co
   0.8385027023270120    0.1662344212594522    0.8325369585173508 Co
   0.8379109751672287    0.4986098806840081    0.1625548128336522 Co
   0.8355114481809789    0.4943992036757121    0.5046948968152424 Co
   0.8296813262277755    0.4981599815864911    0.8360520725294915 Co
   0.8420434878962422    0.8259611655301260    0.1654453774644322 Co
   0.8374224221280305    0.8304665025155712    0.5009662704623581 Co
   0.8298488460318554    0.8346572188698824    0.8338763632187407 Co
   0.2518178995334480    0.2514938017886709    0.2564372012676889 O
   0.2605272315865838    0.2532995389357910    0.5834096261987940 O
   0.2565734117169856    0.2494379640474921    0.9194367038087446 O
   0.2540175325896499    0.5911093794581660    0.2442076138031743 O
   0.2542762359870584    0.5796350918902020    0.5933771479225162 O
   0.2401544098033363    0.5917972581469555    0.9243912405501905 O
   0.2540577667324855    0.9240484995769341    0.2475805334404659 O
   0.2426326788564722    0.9245788275989718    0.5940400186979541 O
   0.2480801898441515    0.9196700684447525    0.9264770298122468 O
   0.5868196244768100    0.2623376172860014    0.2425358362480617 O
   0.5803368220645110    0.2604632370564826    0.5836510097025535 O
   0.5905018438453853    0.2464283733680264    0.9219750674421414 O
   0.5856510281882079    0.5937062584022511    0.2515467390300467 O
   0.5975414860785928    0.5831038451422195    0.5810285155530562 O
   0.5960339783778272    0.5775932848582701    0.9206660867685175 O
   0.5868123557713523    0.9228493148992805    0.2523811089412292 O
   0.5850034983236490    0.9176917036558192    0.5886579027510774 O
   0.5838780965851671    0.9217822486005132    0.9210038246917748 O
   0.9108213207596522    0.2557184335004766    0.2589993720875472 O
   0.9217785160803790    0.2533098296603935    0.5817313507201491 O
   0.9196863667413619    0.2510977663963629    0.9186695892702347 O
   0.9185317997010005    0.5939308716342222    0.2459574184383807 O
   0.9162501699216079    0.5951695798060106    0.5848753728535691 O
   0.9148822938641297    0.5923000861789594    0.9144045047540788 O
   0.9352480434894430    0.9146027949705045    0.2458556258286536 O
   0.9194288093731513    0.9192062802342207    0.5849666805293369 O
   0.9219362738064303    0.9198979472739928    0.9178948627186340 O
   0.0864871519279789    0.0845107060259261    0.0734972784032492 O
   0.0822277974179918    0.0818343395766647    0.4122520207487853 O
   0.0791219037825227    0.0705266663163379    0.7528806033407095 O
   0.0861452646040166    0.4096700416796712    0.0815250395867138 O
   0.0778556906401079    0.4174053514033047    0.4094157134706362 O
   0.0863144577118746    0.4083008803752824    0.7463907118807547 O
   0.0801983350730027    0.7557630239589073    0.0722964156264382 O
   0.0729184773733056    0.7578397264776366    0.4119146928820627 O
   0.0724792949506814    0.7479846060405914    0.7463543911129947 O
   0.4044947634283195    0.0849119564378667    0.0883969026959297 O
   0.4224187628737088    0.0797692086962768    0.4094961972744035 O
   0.4176219696916018    0.0820151830920255    0.7429952129365969 O
   0.4096997897532416    0.4201126489774277    0.0789622843832209 O
   0.4088879297051208    0.4266195030641142    0.4095645736673669 O
   0.4079971027120965    0.4175678451438558    0.7451684538607565 O
   0.4089191920383546    0.7456711492228385    0.0835036558577272 O
   0.4097361873528900    0.7545590470837843    0.4131706195097757 O
   0.4114356286729028    0.7447702213455953    0.7466693830186818 O
   0.7420598982999282    0.0790306459624969    0.0851990618595678 O
   0.7388491327981068    0.0818162959184703    0.4209283269681894 O
   0.7418668436906164    0.0866104448850173    0.7473396776436311 O
   0.7343682948290151    0.4217034649189905    0.0887970869485150 O
   0.7496254693735718    0.4093102610369022    0.4132114516939018 O
   0.7428685521692102    0.4214611724768719    0.7435131887125974 O
   0.7489463002639208    0.7390664229458401    0.0824422062094268 O
   0.7471261192360155    0.7355376511414153    0.4202065077055235 O
   0.7437213916148047    0.7515447331188145    0.7474589209833982 O
