Li20 Co27 O54
1.0
  14.1209132099999994   -4.2168848700000003   -0.0134986200000000
  14.1209132099999994    4.2168848700000003   -0.0134986200000000
  12.8685137100000002    0.0000000000000000    7.1821868699999998
Li Co O
20 27 54
direct
   0.0156695596410543   -0.0155575577772262    0.0030108169542730 Li
   0.0053740174221141   -0.0067766952319348    0.3348645035776356 Li
  -0.0080479724083886   -0.0022466494318300    0.6768798446759443 Li
  -0.0001360071455610    0.3356492451610680   -0.0030183095241517 Li
   0.0014022538126307    0.3266332990746696    0.3359323357124087 Li
   0.0008767398500144    0.6601622746134979    0.0045621177336778 Li
  -0.0005490074036649    0.6682488390229490    0.3347371193284870 Li
  -0.0030382124543225    0.6676606308218167    0.6673237716498016 Li
   0.3354986918169960   -0.0002053378571923   -0.0055780217623623 Li
   0.3298273747801349    0.0026100482440581    0.3325301437075692 Li
   0.3327186920153621   -0.0092823856595206    0.6770059061690307 Li
   0.3406939851640469    0.3242583711415316    0.3328797458114761 Li
   0.3274987969580619    0.6702983850545999   -0.0018730652313537 Li
   0.3425206413009502    0.6564406338457180    0.6648351613546810 Li
   0.6725408771485497    0.0025253360208254    0.3261438907751382 Li
   0.6618523048933586    1.0002312989532629    0.6683114382204276 Li
   0.6595225663930887    0.3337852130541199    0.3409465376413430 Li
   0.6671939749950467    0.3274460237229392    0.6709672405521152 Li
   0.6634863753327540    0.6758238959756117    0.0011909205507287 Li
   0.6616258280392838    0.6657026647109489    0.6758696759958200 Li
   0.1655045165126826    0.1623394077436567    0.1678393440820964 Co
   0.1615991347233320    0.1723902123299736    0.4980867084725983 Co
   0.1654784399333035    0.1675393167125379    0.8361040346148532 Co
   0.1733428253911397    0.4983678321342071    0.1661690142942832 Co
   0.1657609446764716    0.4922350392035842    0.5096763711302518 Co
   0.1548593977804378    0.5109023365073656    0.8388497078983624 Co
   0.1725456050755511    0.8279583236086502    0.1659055160768631 Co
   0.1556467927661831    0.8309255133531097    0.5131117125264172 Co
   0.1671229661085489    0.8248048428518504    0.8421197694059629 Co
   0.4943735320521764    0.1724375496078320    0.1618627813040983 Co
   0.4991813975707143    0.1687912182255999    0.5022038187944501 Co
   0.5026123436034772    0.1695272644453273    0.8299113074185672 Co
   0.5069724643123966    0.5079800143145790    0.1540518476685894 Co
   0.5007509417178588    0.5031625715710740    0.5007910129346174 Co
   0.4918325190616759    0.5144065608427102    0.8284940031617614 Co
   0.5064382383639707    0.8349500046722269    0.1623823689008696 Co
   0.5028418014024088    0.8368890578271392    0.4921067738511052 Co
   0.4848435058611302    0.8416915808842185    0.8321205786904174 Co
   0.8320959745076077    0.1603801942472945    0.1719374203156565 Co
   0.8287872739218685    0.1648503109683382    0.5061094137760546 Co
   0.8362244147182308    0.1590647241317052    0.8336282826160136 Co
   0.8265544423261763    0.5042821662238615    0.1680774391048009 Co
   0.8341953666941415    0.5007507343385091    0.4999998484481487 Co
   0.8264048815272493    0.4951046850780259    0.8439100130319761 Co
   0.8256577378545229    0.8323712097969034    0.1721636929773154 Co
   0.8356825766330849    0.8389694828790537    0.4953806634442390 Co
   0.8363296192895591    0.8385293566792744    0.8304233359967061 Co
   0.2555955969187770    0.2546551890357002    0.2543314613912088 O
   0.2531054739298580    0.2530814616563594    0.5851021372391536 O
   0.2522266764601671    0.2490030061266118    0.9212066710789218 O
   0.2432528008207828    0.5977095351737783    0.2513027178895996 O
   0.2511456006485839    0.5904733891429155    0.5857066124269039 O
   0.2647718447922403    0.5765113248667286    0.9187303562885447 O
   0.2564517716102117    0.9102553944501648    0.2591929358353823 O
   0.2439170390007827    0.9251730457720047    0.5854331658495812 O
   0.2447018100493779    0.9239019723536444    0.9173634673910375 O
   0.5944478868537477    0.2475237049151048    0.2481653500181281 O
   0.5819355024577719    0.2539703706162258    0.5867873167397188 O
   0.5785027575225552    0.2559804838216684    0.9262883171385892 O
   0.5863045053456701    0.5878366173760718    0.2523490864877708 O
   0.5865333555710330    0.5933719683855272    0.5827949644800093 O
   0.5910172128653430    0.5857019081630319    0.9165178445160729 O
   0.5959037021797683    0.9233995800744579    0.2433321218841077 O
   0.5909033073557919    0.9222161536190288    0.5810242150925566 O
   0.5877823970587324    0.9179640340521014    0.9226460077523814 O
   0.9180197657663310    0.2602081138783028    0.2489750071951451 O
   0.9156160333622800    0.2464224138397088    0.5947188863777865 O
   0.9304768176546676    0.2461718306392561    0.9254499131950222 O
   0.9128108720771961    0.5844978615535826    0.2621167955004171 O
   0.9201954392794606    0.5849422689720922    0.5893378712953153 O
   0.9216367017874725    0.5761407991934469    0.9238081228755287 O
   0.9280100639637308    0.9268142944953450    0.2412337456775935 O
   0.9234998090093067    0.9190850117071123    0.5831699957373018 O
   0.9195738941743137    0.9257414227621399    0.9164407362445683 O
   0.0734815582584471    0.0728091476138500    0.0886912997542253 O
   0.0768654189607398    0.0885015177632767    0.4104085677600539 O
   0.0866093974052273    0.0711401991493688    0.7448917703765525 O
   0.0821559830505189    0.4137655197872799    0.0766055127275569 O
   0.0882014600535650    0.4080880514656923    0.4072547577379272 O
   0.0904071392791743    0.4018607226294360    0.7491077097833169 O
   0.0889895724247780    0.7361735478851921    0.0823958977009893 O
   0.0743687586903917    0.7506459017333584    0.4126365175443282 O
   0.0721722523265015    0.7503239419457268    0.7460385963324411 O
   0.4224419003586535    0.0788469025477687    0.0749491118183672 O
   0.4133009729735425    0.0737133121936956    0.4178265261794168 O
   0.4116059618947685    0.0891332399496204    0.7476165477368166 O
   0.4122241762597472    0.4165323374424760    0.0785557996577244 O
   0.4145182436855015    0.4137310460051725    0.4096984153273565 O
   0.4116852750489118    0.4125355354596298    0.7454020847630186 O
   0.4156639145958064    0.7449320942740434    0.0789959699592547 O
   0.4150502433021196    0.7449996305578408    0.4133133018802829 O
   0.4143710641506785    0.7419111629062367    0.7506126397302935 O
   0.7460594426105370    0.0799479012368980    0.0804394216127506 O
   0.7371483002588128    0.0839372728172330    0.4176426300208372 O
   0.7457469384077207    0.0858694572918225    0.7411393341962503 O
   0.7420891745384929    0.4091099865343806    0.0834450214305708 O
   0.7452034465600957    0.4078061253683696    0.4208332313274022 O
   0.7373296949181234    0.4159233794693003    0.7465174749119233 O
   0.7589322216587578    0.7443276677298469    0.0688219344899955 O
   0.7411978178158329    0.7439195464058015    0.4190919934142615 O
   0.7474616317342101    0.7476349888981911    0.7487822922846771 O
