Li20 Co27 O54
1.0
  14.1209132099999994   -4.2168848700000003   -0.0134986200000000
  14.1209132099999994    4.2168848700000003   -0.0134986200000000
  12.8685137100000002    0.0000000000000000    7.1821868699999998
Li Co O
20 27 54
direct
   0.0038409606532877    0.0018119649561992   -0.0040373544982523 Li
  -0.0072012545686198    0.0009364560075785    0.3408291800067598 Li
  -0.0056081688452218    0.0000884759879964    0.6738994097022940 Li
  -0.0036771028711963    0.3282621695843009    0.0095055649122700 Li
   0.0069481755016459    0.3395082688789913    0.3196724321711913 Li
  -0.0004655523376479    0.3285744119030490    0.6702109242767068 Li
  -0.0062062761798466    0.6810881513007719    0.3263017261685253 Li
   0.0014378923954141    0.6737254311880008    0.6566557786213438 Li
   0.3233916580879821    0.0032223314781841    0.0048643915646683 Li
   0.3328563652549436   -0.0036742908201853    0.3384568608418694 Li
   0.3215398952706584    0.0078325257849933    0.6704115386320926 Li
   0.3346987404099578    0.3405169079938458   -0.0005036912106647 Li
   0.3289375103609725    0.3308955790738152    0.6728585161089524 Li
   0.3245416280773544    0.6660539336288791    0.3415505457714628 Li
   0.6662152568588579    1.0006557369312401    0.0019246108526232 Li
   0.6665598207032885    0.9961297442115778    0.6702947050578301 Li
   0.6719224832787436    0.3263219122158530    0.0024298301810740 Li
   0.6726981113713479    0.3319871691972341    0.3243130098391023 Li
   0.6811220834437672    0.3250534256064181    0.6593229690922680 Li
   0.6663102623522824    0.6616899386695339    0.0033671085377892 Li
   0.1712234289832197    0.1583183402740055    0.1713298238997229 Co
   0.1759613542031185    0.1587560722995765    0.5000972355689973 Co
   0.1643219895193055    0.1557506973245432    0.8453881450587446 Co
   0.1744572463938447    0.4927810153828472    0.1639969491944392 Co
   0.1723030796240365    0.5035492094703549    0.4900685011774872 Co
   0.1636607329264113    0.4988428842108160    0.8324883108931794 Co
   0.1651537405580520    0.8378687057797647    0.1619287002301007 Co
   0.1628112617727306    0.8453064509452861    0.4914560633475526 Co
   0.1665044460320765    0.8336321665524407    0.8260219963307346 Co
   0.4986094542103493    0.1682995018122935    0.1652726313506765 Co
   0.4969598513372125    0.1681269459995753    0.4999758566994540 Co
   0.5050450294846578    0.1703075381073925    0.8214898383098707 Co
   0.5000075357534189    0.4958405124722936    0.1754013536212202 Co
   0.4959793248985552    0.5079724799839362    0.4981902363250329 Co
   0.4983148542028424    0.5082534119607134    0.8290663768920257 Co
   0.4998807299266440    0.8310277485060944    0.1768836294806211 Co
   0.5028382336886419    0.8264838759131903    0.5045404916983754 Co
   0.4940562688203346    0.8224292744460796    0.8461310562911833 Co
   0.8267725010533428    0.1769768436834624    0.1647610459336719 Co
   0.8345680689432780    0.1758485421854666    0.4933920771874413 Co
   0.8330173753689243    0.1660328874075840    0.8341346728886785 Co
   0.8391447007992661    0.4907649177878246    0.1727891040475353 Co
   0.8449649563014960    0.5003219729776349    0.4946352509563909 Co
   0.8399156553369642    0.4901145289546019    0.8330521636143376 Co
   0.8252848018628287    0.8391471705072301    0.1676309826165595 Co
   0.8487217033307022    0.8268582520269607    0.4932459255075174 Co
   0.8454467653551062    0.8208440865220640    0.8363755514258067 Co
   0.2448001629785037    0.2580735618172203    0.2493903726750155 O
   0.2583208378426753    0.2386899626285864    0.5955101629706283 O
   0.2619945905019505    0.2542415342236737    0.9125713018957454 O
   0.2556058505913839    0.5836919211707923    0.2524514405227543 O
   0.2518291914771018    0.5957743165337857    0.5831737238719592 O
   0.2473810762367160    0.5872045290921645    0.9224269971386766 O
   0.2550265706894037    0.9139772413449377    0.2582047512110769 O
   0.2596176190062229    0.9108610484273914    0.5912495336100896 O
   0.2549584012508695    0.9229326264097804    0.9194498552979385 O
   0.5894414635730776    0.2619244796538353    0.2441649141054125 O
   0.5776727678120115    0.2562357045245350    0.5899478579246037 O
   0.5851674265292574    0.2524190736869257    0.9254289724948733 O
   0.5886719499300651    0.5942912636400968    0.2479842143139185 O
   0.5866946500344199    0.5833198620523699    0.5869149078400819 O
   0.5926044717056083    0.5795459906238820    0.9275881415399840 O
   0.5777384349382938    0.9230934436223661    0.2544523675613157 O
   0.5895740807440146    0.9183542615161837    0.5836264672299123 O
   0.5917135542821226    0.9287829046270129    0.9108153144871545 O
   0.9090839396817255    0.2521513875968531    0.2655098562717070 O
   0.9147998273848688    0.2543571345430394    0.5908472107892550 O
   0.9226596104194356    0.2565440350440057    0.9163475200650165 O
   0.9298305508171116    0.5864875417947538    0.2455439517104967 O
   0.9136440342796260    0.5837439704788875    0.5976959461792819 O
   0.9171378593851216    0.5854186144878246    0.9257626470952623 O
   0.9143562735983258    0.9247036036123452    0.2528271015527253 O
   0.9212497600398877    0.9275099175021491    0.5837500323529683 O
   0.9166270913275900    0.9270612725522243    0.9182332674244749 O
   0.0681613610522281    0.0788650844036548    0.0883325357554160 O
   0.0913182976763869    0.0761425121133696    0.4081209231960440 O
   0.0757302166148445    0.0815299757498289    0.7479701210177742 O
   0.0864836427935572    0.4129539288278343    0.0760275520758258 O
   0.0779564568845587    0.4114092052472719    0.4143502450264899 O
   0.0776525914432017    0.4129600018547004    0.7434332135290425 O
   0.0766072449206540    0.7425229641877682    0.0847941657282484 O
   0.0945314019855792    0.7348036086126979    0.4112780602981543 O
   0.0827995371609490    0.7432062245555873    0.7467617264648022 O
   0.4219172432849452    0.0792913308461437    0.0679622854532988 O
   0.4144254537224911    0.0701260460385067    0.4139845415675691 O
   0.4092287233078750    0.0891310709188496    0.7419961107088410 O
   0.4059290628115438    0.4139877723686887    0.0852863678400895 O
   0.4103199573637631    0.4187362598223270    0.4124639311842459 O
   0.4066093775448551    0.4209538345652886    0.7506310933687630 O
   0.4036683916559204    0.7509425062687188    0.0855462762465517 O
   0.4187636127473560    0.7432355407484568    0.4070349359176146 O
   0.4105703433551519    0.7401979719587671    0.7492872891362066 O
   0.7448305243205896    0.0699236832631376    0.0931207748972214 O
   0.7468441207629264    0.0811448789517034    0.4158486810436454 O
   0.7391494419816689    0.0804715255186007    0.7529342748638799 O
   0.7591700800364130    0.4154947288321602    0.0680536333491309 O
   0.7459442011953029    0.4083448564828295    0.4154049351703163 O
   0.7447933896541781    0.4083578419327434    0.7495053059400284 O
   0.7465639346632508    0.7455579812141693    0.0777019342333032 O
   0.7386339456188638    0.7454985327200581    0.4174892438953522 O
   0.7508697630610423    0.7371856937898599    0.7485940002117435 O
