Li20 Co27 O54
1.0
  14.1209132099999994   -4.2168848700000003   -0.0134986200000000
  14.1209132099999994    4.2168848700000003   -0.0134986200000000
  12.8685137100000002    0.0000000000000000    7.1821868699999998
Li Co O
20 27 54
direct
   0.0080334681467662   -0.0032711785749088   -0.0005754588289273 Li
   0.0075250914120555    0.0044474420269191    0.3224870118927713 Li
   0.0024906715009232    0.3325088492417214    0.0049568389805476 Li
  -0.0049695917655430    0.3245117331935455    0.3476853254236216 Li
  -0.0031389730259032    0.3362380247068762    0.6698359699530595 Li
   0.0091242132348610    0.6676786557314489    0.3266733471629378 Li
  -0.0078728857238822    0.6755200630672280    0.6661486915444123 Li
   0.3359182499401093   -0.0046722072178805    0.0062785176338162 Li
   0.3288208578739495    0.0163230431644429    0.3213606339002609 Li
   0.3343798214070372   -0.0063033038527699    0.6696262118914683 Li
   0.3351096194696058    0.6604312401140091    0.0033341646880932 Li
   0.3259447703359452    0.6674450129683730    0.6702680237277938 Li
   0.6636101067560699    1.0001583470224991    0.0018691737246692 Li
   0.6612781034915320    0.9924141799446140    0.6769439409580225 Li
   0.6666839930019648    0.3384877867188389   -0.0003086593427948 Li
   0.6700025955246087    0.3240378802922089    0.3368672408889480 Li
   0.6577524635177576    0.3391847727965721    0.6660910163744241 Li
   0.6634442754274517    0.6661369794655058   -0.0030390189766874 Li
   0.6656277004183867    0.6765660722731617    0.3239044345294599 Li
   0.6580885472754454    0.6677776157470936    0.6772838239630822 Li
   0.1578545191111549    0.1741556319623221    0.1681684424717955 Co
   0.1665357535913082    0.1662259654811767    0.5001355507650245 Co
   0.1742435337273185    0.1661768559577239    0.8251193944591443 Co
   0.1627084661790851    0.4991921822963563    0.1740957197888827 Co
   0.1714740334359851    0.4958594569750971    0.4975878391388271 Co
   0.1729571876731625    0.5015210186544220    0.8252514498050204 Co
   0.1704199837375531    0.8254079820735253    0.1726882726909159 Co
   0.1738204312353812    0.8346284780879836    0.4912732133956534 Co
   0.1728968092650626    0.8341060691382350    0.8316176175833589 Co
   0.5028609629038314    0.1644082295104005    0.1659050779379311 Co
   0.5042415682690889    0.1560219022174826    0.5079373312830184 Co
   0.4961824261200348    0.1676810770655474    0.8364399430276178 Co
   0.5016973348437098    0.5066622717948031    0.1590560563370259 Co
   0.5085947079457533    0.4886719884179936    0.5028572822086641 Co
   0.5139668814034364    0.4928874209964649    0.8298582379755998 Co
   0.5030758143924912    0.8289020307264430    0.1652953287022426 Co
   0.4955786406059872    0.8373158643832145    0.5005427541539685 Co
   0.5005230222595538    0.8271115222200103    0.8436817678033756 Co
   0.8339747961124687    0.1632307933160024    0.1657774061408525 Co
   0.8313959074481230    0.1660035980410064    0.5018115198289033 Co
   0.8327406858015172    0.1564039267657286    0.8419651976131693 Co
   0.8374911670573040    0.4989517639421771    0.1687343048725451 Co
   0.8261317137404185    0.5019823453231828    0.5007223565551548 Co
   0.8330358225888465    0.5000806644156232    0.8350590716246479 Co
   0.8340459771111338    0.8390342845069406    0.1632662812680181 Co
   0.8395576864907942    0.8356933241597923    0.4948613075839212 Co
   0.8267960442155498    0.8288966162351121    0.8448696588243972 Co
   0.2548713027317086    0.2572084258676929    0.2532527107294274 O
   0.2572863969766475    0.2629695913440790    0.5744353166547509 O
   0.2547975984225989    0.2612066062356773    0.9119432323559358 O
   0.2549154588788630    0.5939788184273824    0.2453729320529943 O
   0.2559738163333212    0.5786873811431517    0.5934179937737890 O
   0.2558257250923132    0.5883127232880805    0.9163982948967351 O
   0.2545684008126377    0.9175843361852024    0.2574997596221940 O
   0.2478097235154461    0.9306274984729721    0.5867041935556633 O
   0.2585396403527385    0.9159891160671516    0.9192164618585389 O
   0.5899393285030552    0.2495191746711575    0.2496834137750290 O
   0.5695396479719211    0.2587639297840728    0.5931754475972528 O
   0.5925178361281255    0.2512495985499202    0.9180292481914493 O
   0.5811233056412786    0.5893144077279272    0.2530619244509364 O
   0.5848751901134099    0.5793036062305750    0.5923457896635481 O
   0.5722684422035209    0.6081236713402254    0.9145676664232957 O
   0.5966678066004085    0.9161934127660909    0.2467523212093256 O
   0.5813620825134462    0.9207533531340695    0.5925471830902281 O
   0.5866671074208766    0.9237565973334364    0.9132897095788988 O
   0.9162716973193751    0.2619693718477305    0.2444232892343178 O
   0.9157568488799941    0.2516640033170580    0.5866763315177007 O
   0.9217754816358339    0.2519589823900275    0.9216127879271034 O
   0.9192633288737575    0.5845557857385030    0.2571939081428926 O
   0.9201722234972617    0.5920044098124253    0.5806365277870310 O
   0.9142307772215454    0.5945983913210693    0.9180920488457341 O
   0.9201901548032476    0.9206136608304725    0.2569472037683900 O
   0.9173103536362679    0.9279377736649994    0.5795654168519186 O
   0.9263526849139208    0.9162557737862624    0.9199798112491140 O
   0.0788214050314217    0.0817290917076810    0.0787699611486112 O
   0.0824568647291241    0.0830751710544155    0.4087952483195919 O
   0.0778171073265237    0.0788081715015402    0.7464448259186537 O
   0.0780397528570196    0.4109691526102436    0.0816183296906762 O
   0.0873185273307301    0.4101910234063881    0.4027584243716916 O
   0.0809561375310304    0.4125369361668245    0.7504256218199608 O
   0.0638319092043662    0.7665703784135767    0.0755948583485008 O
   0.0839255221872578    0.7406344411855555    0.4187511973630004 O
   0.0872623215953744    0.7429364117115512    0.7404459167977295 O
   0.4116006469929616    0.0750411583435227    0.0872581863810591 O
   0.4173357802562679    0.0863993851263765    0.4064413767747926 O
   0.4159331823164593    0.0758469792836247    0.7492076689181350 O
   0.4028742577577754    0.4227954463588493    0.0833049000396698 O
   0.4091083076196121    0.4135482231918326    0.4187433238034904 O
   0.4087207846487969    0.4057657626598256    0.7565357253742416 O
   0.4133759168068095    0.7447850021449789    0.0818019797806602 O
   0.4175876839965073    0.7423155664556049    0.4162275816676501 O
   0.4185839446152652    0.7486841038775962    0.7401161205383350 O
   0.7456986150812481    0.0760767852470383    0.0866692964507841 O
   0.7344652418808808    0.0949424043278874    0.4061821693570573 O
   0.7549173666127096    0.0774150180280702    0.7446742126705863 O
   0.7445181252737876    0.4153910459873277    0.0802220581524689 O
   0.7341596676144938    0.4200555588290341    0.4178991065695282 O
   0.7512452847956888    0.4129650529776435    0.7414418302335068 O
   0.7425363268403387    0.7565348357085711    0.0731162509397348 O
   0.7491696147038747    0.7427493066430921    0.4175144708566949 O
   0.7520584082428237    0.7427244203594090    0.7461107041579332 O
