Li20 Co27 O54
1.0
  14.1209132099999994   -4.2168848700000003   -0.0134986200000000
  14.1209132099999994    4.2168848700000003   -0.0134986200000000
  12.8685137100000002    0.0000000000000000    7.1821868699999998
Li Co O
20 27 54
direct
  -0.0089126448346627    0.0014417192964630    0.0095241987267470 Li
   0.0042208910208667    0.0016681252653950    0.3234447712197824 Li
  -0.0133387316952468    0.0014872601515006    0.6778296814451374 Li
   0.0077074339159131    0.3327975728322502    0.3256020836835730 Li
  -0.0046631207215388    0.3366413539448229    0.6687210421942673 Li
  -0.0020567138822311    0.6692929624050106    0.0022135046046475 Li
   0.0013323653557377    0.6711358081118457    0.3284018267546125 Li
  -0.0028771182543036    0.6686497359436173    0.6652972712187770 Li
   0.3359451690141428   -0.0013737008155934    0.0038374270516837 Li
   0.3191337096322229    0.0034640458924702    0.3386613539071926 Li
   0.3285735141970911    0.0097274547258563    0.6614416767337583 Li
   0.3404866709875136    0.3275521757999198   -0.0023522714049012 Li
   0.3350081878866661    0.3321440387954199    0.3324957288733259 Li
   0.3289108824269782    0.6731106532370111   -0.0008190604325369 Li
   0.3259608501192970    0.6738089563780660    0.6673073027500724 Li
   0.6652106294781067    0.9984288807237114    0.0027261031857020 Li
   0.6737375257303575    0.9888776002025950    0.6728384671666467 Li
   0.6582854690819679    0.3296040909222113    0.0167928612256952 Li
   0.6610256471076167    0.3331338391631594    0.3382028465413751 Li
   0.6692782926540246    0.6607633845447641    0.0067475032478282 Li
   0.1605428486097583    0.1713369190390846    0.1717931418448181 Co
   0.1675664155765416    0.1731058791486733    0.4918996074154232 Co
   0.1605419951603146    0.1698914671726185    0.8314255095862676 Co
   0.1532468055024147    0.5089693816328646    0.1657470315813862 Co
   0.1693043149986315    0.4969816526616874    0.4968877591006836 Co
   0.1711759052864366    0.5012775035002006    0.8285088719629440 Co
   0.1550104063401873    0.8344707429794487    0.1773304941755272 Co
   0.1723395159255821    0.8337796682680921    0.4926970960141918 Co
   0.1691827735199001    0.8246341697646450    0.8397119724314012 Co
   0.4979860488683165    0.1720755067350118    0.1651200317353594 Co
   0.4939836495957431    0.1729515476193046    0.4958934429662136 Co
   0.5033239875979827    0.1696918788697140    0.8234792425728280 Co
   0.4910165404629379    0.5048571414839563    0.1684803236524971 Co
   0.4911668841306697    0.5067908980499564    0.5032344226948374 Co
   0.4968705572220563    0.5024160810942666    0.8342130637563979 Co
   0.5065603741126656    0.8276650411525811    0.1625236906629929 Co
   0.5075128776336330    0.8264901124693351    0.5022092340139495 Co
   0.4976921351655876    0.8366925114618975    0.8340863954752828 Co
   0.8358606811593622    0.1726680708686104    0.1641086289080433 Co
   0.8419139425855682    0.1689171819177909    0.4960473004646492 Co
   0.8301657117519905    0.1672238315779463    0.8328122183723441 Co
   0.8399402069509470    0.4976797217768073    0.1625280717255236 Co
   0.8345830518027915    0.4987049854850173    0.5000584342495620 Co
   0.8244866783228758    0.5058243847088688    0.8343685217916044 Co
   0.8295302764150054    0.8351988611270582    0.1673075557872158 Co
   0.8301440788027118    0.8372014667744353    0.4989199608257142 Co
   0.8283882467121386    0.8386550002354463    0.8339545937488158 Co
   0.2480875175892686    0.2545019072154355    0.2555861825305379 O
   0.2437513585829249    0.2588017947731994    0.5914268899554336 O
   0.2435475789130132    0.2639323825956735    0.9228849469323747 O
   0.2506171971946349    0.5906774038394949    0.2540996853594619 O
   0.2544764554950869    0.5878628212355146    0.5772816362603715 O
   0.2566777591951535    0.5811114653805531    0.9264140614661792 O
   0.2481867065768827    0.9273061720574218    0.2547762787218696 O
   0.2459569438548445    0.9228776779834478    0.5913331303817877 O
   0.2585229730288367    0.9233983008410240    0.9176874294808639 O
   0.5885326722646406    0.2484531477897660    0.2538075674906277 O
   0.5901784761398156    0.2494825447030807    0.5866189629196639 O
   0.5879592469351036    0.2485645657827135    0.9200444046656183 O
   0.5819242458618832    0.5859618649672879    0.2603721879256470 O
   0.5842524838771000    0.5812502346629270    0.5915877926853059 O
   0.5876412361628842    0.5891848388239560    0.9181466786267581 O
   0.5797946850070406    0.9182834196922414    0.2583732509371707 O
   0.5874457475322142    0.9181436044588186    0.5884216837600461 O
   0.5856882957839701    0.9161575552595670    0.9257156212436288 O
   0.9167637285177860    0.2521782671010423    0.2561345338934744 O
   0.9304749567048416    0.2449687537731306    0.5822951835979099 O
   0.9281989547398873    0.2421073905188488    0.9212564799203686 O
   0.9223292816713405    0.5755121225720237    0.2643294633674132 O
   0.9239867875985321    0.5866392055964349    0.5866251539668530 O
   0.9153562544346541    0.5897523374555327    0.9209853018503779 O
   0.9200028828577177    0.9195166425442608    0.2522311294942990 O
   0.9145153640308434    0.9266187072371086    0.5854240205849678 O
   0.9211154943231463    0.9200355592918028    0.9196144570129132 O
   0.0905772334868774    0.0708237969079318    0.0792555137817788 O
   0.0797474504316764    0.0662035241119590    0.4255805245178855 O
   0.0791121198292487    0.0764687482578643    0.7513042016952731 O
   0.0802091148232184    0.4142580735852005    0.0801817644029362 O
   0.0760609382564733    0.4186438389929574    0.4093181030089040 O
   0.0911239773824650    0.4041053558807658    0.7425750358624246 O
   0.0818052420794672    0.7401153969574484    0.0806623855989121 O
   0.0830480345829337    0.7487109494272739    0.4075293261212997 O
   0.0904867207045214    0.7446815082828949    0.7374898428924936 O
   0.4097731401085952    0.0855787874637136    0.0800346526505762 O
   0.4210390617369389    0.0817113903865754    0.4019557508846527 O
   0.4261194692901277    0.0665151007621438    0.7454321815763821 O
   0.4117054988273748    0.4214390529409366    0.0744833259639432 O
   0.4212286968837640    0.4066505789103795    0.4128235371886854 O
   0.4081153552280388    0.4142710865964604    0.7514785720188220 O
   0.4038264010561309    0.7544819518864105    0.0801308438743176 O
   0.4175323079287049    0.7513484978420975    0.4063094172443152 O
   0.4069376034078838    0.7502525790517495    0.7488082075716203 O
   0.7385839212626281    0.0801384192754690    0.0873144523804451 O
   0.7331361322047403    0.0794844653487675    0.4252611896387350 O
   0.7435238276274124    0.0738244825125958    0.7564122121808509 O
   0.7543473375241536    0.4046056676546398    0.0748025317761908 O
   0.7527031898715051    0.4171087069114883    0.4060183554593652 O
   0.7459708445398725    0.4108102428033270    0.7515753647320786 O
   0.7447198022038823    0.7532055111675109    0.0819048430503762 O
   0.7499311684871575    0.7475905248041175    0.4126370195153094 O
   0.7447131489065442    0.7477207540589346    0.7480909827758384 O
