Li24 Co27 O54
1.0
  14.1209132099999994   -4.2168848700000003   -0.0134986200000000
  14.1209132099999994    4.2168848700000003   -0.0134986200000000
  12.8685137100000002    0.0000000000000000    7.1821868699999998
Li Co O
24 27 54
direct
   0.0062347181587456    0.0009648559345165    0.3250694660288073 Li
  -0.0040157678878776    0.0059164692776963    0.6615063245942284 Li
  -0.0015489379126943    0.3376208708114326    0.0003887284796612 Li
   0.0054756935406881    0.3267137890183502    0.6677510592780664 Li
  -0.0076691341646081    0.6721796760261919    0.3317290265636140 Li
   0.0011772233989510    0.6672141882268688    0.6674812529288209 Li
   0.3389586899998444   -0.0036355970612756    0.0003246241773307 Li
   0.3275380308730482    0.0032361074686675    0.3404850883598682 Li
   0.3279094487262593    0.0090398556645288    0.6569680415455588 Li
   0.3418545119165188    0.3393304356078495   -0.0151289399400693 Li
   0.3325253460287782    0.3324629413521870    0.3347195585469581 Li
   0.3279755744992461    0.3439902693785243    0.6623536811844688 Li
   0.3335195717178299    0.6743387752375610   -0.0058367224215825 Li
   0.3319067268313866    0.6716283608553433    0.3315065872393634 Li
   0.3321995338272824    0.6719990563554238    0.6646559897397842 Li
   0.6731486059766667    0.9961120439378242    0.0010216813022940 Li
   0.6646649391230377    0.0003493318258407    0.3361583193594302 Li
   0.6537848549669681    1.0107278214045845    0.6681785150915606 Li
   0.6663633350404879    0.3331229579898372    0.0049864639906430 Li
   0.6640545616987861    0.3368564117959769    0.3305503240059979 Li
   0.6634194204445916    0.3390116327224261    0.6657395074475005 Li
   0.6730474598022419    0.6591789840637938   -0.0024375112874774 Li
   0.6651959074027338    0.6619890142785900    0.3395043266605803 Li
   0.6717780458967391    0.6735310166225776    0.6601354414540694 Li
   0.1601591882449006    0.1696786750523979    0.1730003994536330 Co
   0.1606774909256315    0.1739283448877693    0.4947791923863814 Co
   0.1724634233354225    0.1597103864213084    0.8377176087417468 Co
   0.1590520299822661    0.4973412977967906    0.1783474719745209 Co
   0.1676066065483230    0.4944727807289335    0.5061420657126430 Co
   0.1682235979297741    0.5012302490466151    0.8347729568615095 Co
   0.1593572834617354    0.8380427308709631    0.1715213683232293 Co
   0.1701965518457057    0.8239778259968752    0.5011167442339821 Co
   0.1762845278107311    0.8292413404285157    0.8264511505830729 Co
   0.5009368421651721    0.1717800447057011    0.1565252441247849 Co
   0.4976055837254357    0.1668129004723564    0.5004128325969173 Co
   0.4915056431239237    0.1595970144873980    0.8406899829458345 Co
   0.4922975329426519    0.5036355414529126    0.1699308581903813 Co
   0.4932151484586491    0.4991076069520093    0.5076624408785404 Co
   0.4981414693025126    0.5038101014792620    0.8323250254319903 Co
   0.5032790891471284    0.8366888000003150    0.1601462593479464 Co
   0.5019874237529585    0.8273058235308137    0.5038784363479794 Co
   0.4945691338401608    0.8282032073043917    0.8446209486165325 Co
   0.8344271959807389    0.1634758581340774    0.1688186976870811 Co
   0.8369932820272059    0.1592918205082298    0.5032919467708405 Co
   0.8437120256059845    0.1569859288504079    0.8258207885677180 Co
   0.8362857429548178    0.5007440860180695    0.1624001317856146 Co
   0.8310120985919145    0.5004303340962701    0.5036168150610304 Co
   0.8335020199345261    0.4999574754059176    0.8285677394449829 Co
   0.8228193513155401    0.8330142878344081    0.1736535518394065 Co
   0.8354693061857561    0.8303014636088457    0.5050298605545406 Co
   0.8226151030662793    0.8409221989521104    0.8370404244897526 Co
   0.2614887221729019    0.2468112142360056    0.2511490199764316 O
   0.2483430385337017    0.2591644590167730    0.5856138848567233 O
   0.2478594122595234    0.2513181414338966    0.9249411422011350 O
   0.2479516935011482    0.5953091251289182    0.2510620608529073 O
   0.2475909300612818    0.5916889475438922    0.5904255136477962 O
   0.2417888229816467    0.5952740731305508    0.9215257796227263 O
   0.2553944158951239    0.9187725108683816    0.2521653249534536 O
   0.2477309453133467    0.9274997833853293    0.5858418228238592 O
   0.2572290327728400    0.9213090420960698    0.9189549870088489 O
   0.5817690210456544    0.2540085713235372    0.2521430478070126 O
   0.5863169136036794    0.2519885214602539    0.5861327217390755 O
   0.5914075377975210    0.2565007761807027    0.9133438256060610 O
   0.5937192911263771    0.5892381262681378    0.2445610647850108 O
   0.5835259680974083    0.5938649924596193    0.5840559625362141 O
   0.5939531776692000    0.5844772945133077    0.9168173867921430 O
   0.5806058709558077    0.9264928455894704    0.2524929595526661 O
   0.5891115419997753    0.9245880193906334    0.5847949684970180 O
   0.5856119313208699    0.9230971814753823    0.9175596111066268 O
   0.9163289685046359    0.2622022583168447    0.2513073560892103 O
   0.9140001227657417    0.2578372330380723    0.5905879686420307 O
   0.9233418941618312    0.2545118363951761    0.9186751834833872 O
   0.9257377344954726    0.5815241556468035    0.2525030013368885 O
   0.9111729708541110    0.5868410639431823    0.5935435374079026 O
   0.9172690061555127    0.5847100616544230    0.9274578112418067 O
   0.9145854311148874    0.9202000770112601    0.2577255250925196 O
   0.9252325202874945    0.9235377597680698    0.5799116200507468 O
   0.9239753299827849    0.9206775828067078    0.9135793919441509 O
   0.0837733506568175    0.0893403649853098    0.0705993831917421 O
   0.0823208744133110    0.0767909885326049    0.4123524878409020 O
   0.0780370690356814    0.0806780573121214    0.7491566992529064 O
   0.0684091529185163    0.4200935862507169    0.0827929430658268 O
   0.0910841405490889    0.4096361470551079    0.4033980816463476 O
   0.0814813227488330    0.4203745021707386    0.7396502281189892 O
   0.0828260834830144    0.7461339307936649    0.0815227003492267 O
   0.0846855545873491    0.7435734182924096    0.4135437067878264 O
   0.0777849957566786    0.7484782804298082    0.7445931469679031 O
   0.4198508943828442    0.0723852012497471    0.0811505659956880 O
   0.4089349535044018    0.0862225643614816    0.4149585126209547 O
   0.4048226941943717    0.0755045903188927    0.7566472635546911 O
   0.4239012250922889    0.4082715410667093    0.0683737456167031 O
   0.4176917215346831    0.4126238602899322    0.4054603766469453 O
   0.4014742636684774    0.4276594249509502    0.7431023126899596 O
   0.4074437788125823    0.7556125299048451    0.0709510464664615 O
   0.4111534146318483    0.7492719099030630    0.4081458269100652 O
   0.4143075582352058    0.7513697851271375    0.7428704748492655 O
   0.7497007855644087    0.0791914564633427    0.0825164209979639 O
   0.7508097043008897    0.0797544551340651    0.4097252237711562 O
   0.7505549201805786    0.0699102990930205    0.7468962654337545 O
   0.7567268153506119    0.4095464552226002    0.0754740245248471 O
   0.7558695660759572    0.4094325486431649    0.4098459515518428 O
   0.7580951923369557    0.4088104605325400    0.7372755341326765 O
   0.7451343602089120    0.7521345287180125    0.0780523491899572 O
   0.7417277001775304    0.7502214107261999    0.4202379052581985 O
   0.7443573155009611    0.7498835571304991    0.7437693915782297 O
