Li24 Co27 O54
1.0
  14.1209132099999994   -4.2168848700000003   -0.0134986200000000
  14.1209132099999994    4.2168848700000003   -0.0134986200000000
  12.8685137100000002    0.0000000000000000    7.1821868699999998
Li Co O
24 27 54
direct
   0.0092268513565015   -0.0053417510111992    0.0012575089034681 Li
   0.0026726461983472   -0.0021016126246567    0.6656859628193286 Li
   0.0101952269420216    0.3276147892058343   -0.0039144779358192 Li
  -0.0003634022785511    0.3319915899125713    0.3344917541535974 Li
  -0.0058650494392573    0.3366436047023023    0.6676597265984739 Li
  -0.0025713268234065    0.6622094287682124    0.0090360544177235 Li
  -0.0042233584887036    0.6678766608147688    0.3351041588766254 Li
   0.0066743718043232    0.6632728690060279    0.6659881690884292 Li
   0.3304310349513079   -0.0016386144593539   -0.0000051504501570 Li
   0.3318857387032663    0.0069445019188188    0.3277657373063982 Li
   0.3347300403805409    0.0000500073321508    0.6650806713245015 Li
   0.3282325489112986    0.3390162426848028    0.0034117049299355 Li
   0.3371456595017849    0.3325050944620713    0.3270512788480615 Li
   0.3302229792143809    0.6706495024902306   -0.0044604027634706 Li
   0.3320459690506222    0.6651441378460723    0.3346757521270200 Li
   0.6653687401764629    0.9948222869130404    0.0010781724667999 Li
   0.6716643067781332   -0.0038193916721745    0.3321359908635461 Li
   0.6746948759757406    1.0012927132618907    0.6560978432650968 Li
   0.6620908584102059    0.3429920980539317   -0.0049519339246831 Li
   0.6625421063652963    0.3361347312609122    0.3387662451450824 Li
   0.6676599349117625    0.3342009154400877    0.6629704605829572 Li
   0.6647182034945690    0.6667645354700102    0.0018634422186464 Li
   0.6588671492769100    0.6696001868851582    0.3362498510325371 Li
   0.6571531360479451    0.6651928692513794    0.6729552101506169 Li
   0.1577960362968863    0.1716185415767199    0.1692623632433400 Co
   0.1683221998816296    0.1656621737041588    0.5019055740364248 Co
   0.1606029714010858    0.1653698211568557    0.8350584573833306 Co
   0.1693908950443638    0.4950884166395583    0.1717314145537142 Co
   0.1679512368345782    0.4965638696267606    0.5026576334096036 Co
   0.1764116964159989    0.5021348616841304    0.8239344724932656 Co
   0.1744918420987940    0.8345722190659631    0.1613849274973368 Co
   0.1622087243125568    0.8338639257305948    0.5011704503062139 Co
   0.1757423645209418    0.8346015299496493    0.8283453207220856 Co
   0.5038392078320577    0.1672241002223777    0.1608694059296074 Co
   0.5038622707160387    0.1661080826091284    0.4958092248336475 Co
   0.4960313973071450    0.1695604608442311    0.8316079508870152 Co
   0.4978473549397600    0.5062455293816314    0.1614534689130051 Co
   0.4943354379293895    0.4975474333417560    0.5027342127002413 Co
   0.5005164659864575    0.4999604113441747    0.8349526732439163 Co
   0.4900843491452219    0.8346845449956334    0.1772622639452198 Co
   0.5074723101242404    0.8300739902352482    0.4974120246239417 Co
   0.5008993774491750    0.8321249378276654    0.8305306871101494 Co
   0.8372987124044788    0.1629374055884855    0.1691886133249255 Co
   0.8312571905099090    0.1640088596078196    0.5017981944090540 Co
   0.8312514002001348    0.1710191891973342    0.8355673165187285 Co
   0.8287299014318515    0.5014019353573754    0.1679862149452863 Co
   0.8405072649022441    0.4956255453683835    0.4969390570391841 Co
   0.8426147338192418    0.4965022300134685    0.8271127530815526 Co
   0.8397845765541136    0.8365224814701825    0.1617122731038737 Co
   0.8457339667619663    0.8291088145914847    0.4982798274388975 Co
   0.8276394469708797    0.8323919359812937    0.8355595238636737 Co
   0.2480146440702913    0.2520459898902076    0.2614987216797647 O
   0.2527657064150731    0.2506336729331498    0.5903349997843884 O
   0.2603061456521300    0.2514580896985337    0.9148242674743129 O
   0.2525244118802069    0.5872152872068575    0.2559426999578615 O
   0.2558246311281842    0.5874944829818731    0.5829649263216738 O
   0.2477450120477710    0.5975484249219630    0.9189800840964605 O
   0.2506534151488115    0.9212613801592960    0.2558415037296258 O
   0.2505050656755925    0.9185474809786256    0.5955648480172694 O
   0.2525286546015569    0.9242252197280063    0.9194838380505390 O
   0.5915809901874889    0.2483048111363578    0.2528117426282006 O
   0.5833657866172601    0.2590816933737732    0.5790385223034438 O
   0.5898135134678708    0.2605972209553936    0.9145827869648020 O
   0.5884929840122517    0.5720126370527702    0.2689950652181489 O
   0.5840081903726249    0.5891450413271409    0.5836051060458208 O
   0.5952278257603317    0.5935274021792954    0.9060660763229629 O
   0.5921706946430825    0.9236351823698297    0.2450322981842950 O
   0.5934636887559810    0.9169405467039651    0.5834518485877882 O
   0.5865169371417811    0.9222634591638250    0.9168436390618668 O
   0.9154402719964124    0.2590608932346629    0.2507846016065058 O
   0.9254292061209071    0.2505126006920256    0.5830610793452846 O
   0.9203816647218230    0.2455489552410088    0.9254898452912265 O
   0.9091250667445202    0.5879386308784063    0.2604068643052557 O
   0.9162723787102093    0.5863653861325154    0.5869205095383353 O
   0.9102714499544380    0.5929470780908230    0.9262503746246004 O
   0.9297434801815310    0.9174260467997797    0.2516557873258909 O
   0.9206053405345503    0.9215917160116917    0.5828028019915399 O
   0.9250569911950202    0.9200560236773341    0.9158766499445875 O
   0.0710365969911966    0.0835443288190088    0.0879817162273374 O
   0.0850330014647679    0.0747336113367918    0.4093816985296306 O
   0.0854504538779945    0.0764834038213857    0.7443934966065833 O
   0.0831951901692370    0.4049586499420234    0.0801044370624810 O
   0.0828178873808130    0.4213080563682922    0.4057085377940039 O
   0.0724226782904787    0.4210129043661844    0.7514234146752516 O
   0.0774195015571551    0.7455192972604637    0.0875818827497413 O
   0.0750220327407511    0.7512442247035029    0.4157697625328259 O
   0.0954921249359019    0.7409025087653596    0.7367770763335285 O
   0.4085699483829665    0.0844026544483545    0.0783056162083328 O
   0.4129444357914627    0.0858481706797825    0.4060014375402833 O
   0.4234016363949848    0.0751477849936338    0.7441250358172231 O
   0.4166421086863512    0.4118524691663595    0.0762629135552334 O
   0.4093412563280854    0.4185391320275444    0.4129185981575686 O
   0.4163459205537032    0.4077893960760280    0.7503245872607749 O
   0.4142082391391129    0.7400063649435565    0.0843098485954417 O
   0.4036238679275990    0.7521331459619314    0.4163180479014721 O
   0.4144754175181898    0.7439297986086606    0.7463662469572444 O
   0.7497175986632871    0.0700723438131672    0.0846629367692146 O
   0.7503107413766639    0.0718723979847354    0.4167710796222507 O
   0.7440070467112403    0.0842402312974431    0.7401561358686504 O
   0.7462180165766449    0.4161443843959365    0.0715121300180174 O
   0.7417296993355079    0.4104025239103354    0.4227033038609528 O
   0.7406966405522764    0.4119723707238442    0.7506711823412183 O
   0.7570878884844098    0.7447051462753341    0.0741355044652441 O
   0.7521654018354448    0.7432149400832957    0.4126569696700766 O
   0.7483259136643406    0.7459788034776470    0.7492021156124608 O
