Li20 Co27 O54
1.0
  14.1209132099999994   -4.2168848700000003   -0.0134986200000000
  14.1209132099999994    4.2168848700000003   -0.0134986200000000
  12.8685137100000002    0.0000000000000000    7.1821868699999998
Li Co O
20 27 54
direct
   0.0056286683030601    0.0047360932193367   -0.0048702682457247 Li
   0.0102143586477858   -0.0131558337566359    0.3327360198589600 Li
   0.0037660397628231    0.3331966582317600   -0.0075558436493868 Li
  -0.0084130067679733    0.3404331788525043    0.3377739584113432 Li
   0.0063949133178716    0.3328464614809450    0.6629767201119221 Li
   0.0018108619590811    0.6654813792083709   -0.0033287958841980 Li
   0.0055059930154868    0.6617043410367808    0.6595163156981855 Li
   0.3351392478544082    0.0018873258927967    0.3334720115395014 Li
   0.3342866858048004    0.0028442131418037    0.6639814590736540 Li
   0.3369973185267801    0.3414817906999363   -0.0090452152244663 Li
   0.3311802026405174    0.3208601504265781    0.3456172012075576 Li
   0.3370528843007201    0.3333954994168178    0.6586717807407787 Li
   0.3205175142492238    0.6671916456037779    0.0084914768855011 Li
   0.3315901066174402    0.6629548105359480    0.3363106990006273 Li
   0.3317742479443547    0.6672278723748988    0.6697896078247404 Li
   0.6616897987321719    0.9998382894324724    0.0099834093075367 Li
   0.6637602465751348    0.0036343899578951    0.3340299394790383 Li
   0.6622099781556838    0.9976269140522975    0.6730252887559429 Li
   0.6681522383792752    0.6611179205206557    0.0084824670049151 Li
   0.6586950737051562    0.6697215577575752    0.3394882247680454 Li
   0.1715214213755158    0.1637638924960811    0.1648553837621332 Co
   0.1657782823304452    0.1705895011861974    0.4955878260958659 Co
   0.1708984528683274    0.1621943094756703    0.8329993301344629 Co
   0.1728015994409200    0.4995585834886747    0.1629052406132389 Co
   0.1693909036490507    0.4928632223096804    0.5085144956094408 Co
   0.1648619362368886    0.5021250857573716    0.8292127274010465 Co
   0.1693803591868480    0.8301349148958476    0.1625776616039368 Co
   0.1595468424456476    0.8366567361329903    0.5010608482921677 Co
   0.1658224158378763    0.8368859075481976    0.8339164697805878 Co
   0.5012174331932369    0.1735939261617929    0.1585943171159463 Co
   0.4993431862478763    0.1720041888417435    0.4963550614828641 Co
   0.4987559827601223    0.1609381649245381    0.8368553785958988 Co
   0.5031212486998919    0.5017888238852275    0.1602211368530004 Co
   0.4993885343043392    0.4933019007339742    0.5080689510331681 Co
   0.4935036530409692    0.4969160181396451    0.8420001226195977 Co
   0.5006871153844923    0.8341170830309240    0.1604088856308963 Co
   0.4965975062918778    0.8335824697322182    0.5018876815622272 Co
   0.5025252458055973    0.8329037488751185    0.8329194706203880 Co
   0.8409707932914043    0.1671620173303606    0.1653445846180058 Co
   0.8256833316906833    0.1718266285613928    0.5003647282270165 Co
   0.8296295971216820    0.1725479231817402    0.8349342910516652 Co
   0.8394222488922995    0.4957903590579062    0.1631513630865063 Co
   0.8203691095477770    0.5013566128564214    0.5108831588769516 Co
   0.8331442582165021    0.4959331849035559    0.8394205653415575 Co
   0.8328771529559841    0.8295798492015992    0.1735241054262998 Co
   0.8249900591474574    0.8403421195564141    0.4998542669876420 Co
   0.8312985620282894    0.8372569242403102    0.8375977846156527 Co
   0.2621729302010120    0.2542031088221897    0.2491690345487263 O
   0.2539055953527463    0.2552389623905223    0.5826484924747813 O
   0.2567430123921492    0.2608636384635201    0.9096470352660063 O
   0.2476099743003480    0.5882129192726013    0.2566607913003239 O
   0.2513154350947133    0.5878073966704317    0.5861660352573104 O
   0.2486426101980280    0.6004221446997389    0.9118669664095321 O
   0.2571721667214052    0.9217309517597954    0.2484284268352092 O
   0.2512395802143741    0.9152885887405402    0.5911793125842099 O
   0.2523888268450661    0.9300926479615084    0.9115922639823284 O
   0.5893733403181558    0.2569558062869982    0.2454235891455126 O
   0.5823509010352451    0.2512531778158656    0.5900687128802933 O
   0.5902160761059833    0.2537532092875033    0.9176410525501509 O
   0.5812880963568271    0.5929835114075169    0.2493876388700834 O
   0.5894054617894464    0.5847142161515355    0.5854595944560627 O
   0.5973542427323109    0.5831650248217748    0.9150365081545782 O
   0.5913367864805160    0.9289395561607607    0.2361161736581103 O
   0.5783682244295981    0.9211753077187038    0.5953954212647713 O
   0.5910097212801952    0.9195388968821343    0.9150506759097554 O
   0.9090452218399313    0.2554309128568009    0.2654783320817393 O
   0.9203791218907700    0.2504996098410736    0.5830306034443208 O
   0.9219719465868506    0.2569606490815911    0.9107110086918724 O
   0.9229566455802924    0.5901796000818647    0.2456087097259465 O
   0.9233954155848826    0.5880455330211053    0.5869943087726822 O
   0.9142346406113918    0.5889821617199186    0.9208486144455174 O
   0.9149633054553341    0.9268856218167059    0.2533192139321999 O
   0.9222783609497103    0.9318587048364591    0.5728497106044986 O
   0.9121238999681123    0.9255521855685218    0.9310376193746867 O
   0.0809800802625965    0.0756001616657107    0.0850370563341028 O
   0.0866586669369137    0.0710753153462605    0.4142498610324921 O
   0.0862024614628049    0.0752805841473429    0.7485684433874600 O
   0.0803440222118438    0.4151644560130729    0.0717414983859750 O
   0.0801846244418039    0.4107096347466294    0.4164354109892605 O
   0.0756398410649008    0.4141548000696092    0.7509760860065096 O
   0.0847488821807421    0.7469308947016404    0.0749228306361947 O
   0.0793132551526614    0.7476756143890737    0.4136842257415367 O
   0.0829297101008007    0.7425591274371179    0.7500462146882756 O
   0.4101809997666727    0.0837373912546844    0.0788266933431462 O
   0.4148047358553548    0.0764227301403191    0.4131980487896046 O
   0.4123332830659202    0.0892278622805165    0.7390229693154762 O
   0.4075689021840611    0.4158058027798257    0.0821194102891214 O
   0.4183430604394149    0.4082137796872767    0.4154893425731973 O
   0.4098929623560871    0.4176521915845602    0.7501116949346394 O
   0.4145708267772168    0.7406726331827341    0.0811658595172694 O
   0.4075903304895840    0.7442294269096367    0.4210802263215992 O
   0.4196245559931512    0.7446613184077586    0.7413878652275384 O
   0.7476269932351745    0.0777554350065023    0.0799844683501033 O
   0.7424550133309484    0.0827072605371326    0.4156709399551662 O
   0.7481544554304917    0.0690624951153764    0.7539286975805037 O
   0.7390601561844126    0.4156305843749900    0.0887204291312162 O
   0.7441643069044639    0.4179463761876198    0.4084526263453937 O
   0.7458720873252490    0.4126379003113474    0.7513629697773089 O
   0.7414982787241154    0.7513736230660027    0.0796946679897196 O
   0.7547124890348471    0.7539382364807762    0.3974605099397677 O
   0.7431115618473612    0.7500140788885923    0.7503772617893438 O
