Li20 Co27 O54
1.0
  14.1209132099999994   -4.2168848700000003   -0.0134986200000000
  14.1209132099999994    4.2168848700000003   -0.0134986200000000
  12.8685137100000002    0.0000000000000000    7.1821868699999998
Li Co O
20 27 54
direct
  -0.0085156702789473   -0.0011628400103259    0.3428197351661051 Li
   0.0088103215051433   -0.0111568459692234    0.6679579849880533 Li
   0.0039984238644507    0.3362273389255278   -0.0051026798553388 Li
  -0.0062920280350986    0.3413304342487072    0.6701712974901700 Li
   0.0009713273957735    0.6692953092886176    0.3316591330177723 Li
   0.0093372478083001    0.6647467675345800    0.6638032480028155 Li
   0.3364148863750993   -0.0062110391924587    0.3383885389127720 Li
   0.3292120431900364   -0.0004406955867749    0.6681649621400765 Li
   0.3314952362869631    0.3351494704223859    0.3291797458557408 Li
   0.3275662083675015    0.6640128434262024    0.0032122538134578 Li
   0.3447892804914163    0.6584769639888245    0.3232837623671720 Li
   0.3328526502010773    0.6611037420576739    0.6746970415069758 Li
   0.6689931830431337    1.0053791804985608   -0.0098064607877582 Li
   0.6708605454258346    0.9910573615723001    0.6698090782888867 Li
   0.6682861353104977    0.3328702859610633   -0.0001018409237955 Li
   0.6672633515064175    0.3337753459822285    0.3300375715703200 Li
   0.6548274591379701    0.3369727876371441    0.6761492040781359 Li
   0.6690865304222673    0.6706439789704814   -0.0025438955674798 Li
   0.6740339468851558    0.6544972098628770    0.3419525855147763 Li
   0.6685350870356204    0.6703299178170417    0.6605856606075812 Li
   0.1661273437928846    0.1712304028531480    0.1628349562747413 Co
   0.1665527699769187    0.1727873621199504    0.4940630235665673 Co
   0.1644529409545374    0.1643920174172701    0.8371507494462206 Co
   0.1607091757392961    0.4965299269159285    0.1773552003000267 Co
   0.1710443150875898    0.4941406540971627    0.5035670466877091 Co
   0.1632378370077138    0.5020858904071535    0.8362152182381006 Co
   0.1636526962929689    0.8367270558659001    0.1653265901901617 Co
   0.1733947061272131    0.8329951197372349    0.4945843167102296 Co
   0.1663118146904731    0.8355528350419241    0.8286607944793889 Co
   0.5050568699192893    0.1614793588157107    0.1676886895886855 Co
   0.5002337592582867    0.1758461402931510    0.4959472044936244 Co
   0.4971206426543283    0.1690666313061152    0.8305607982527009 Co
   0.4974172802212939    0.5045914417380023    0.1611434479504657 Co
   0.5028810733010972    0.5081477541306333    0.4876113725504296 Co
   0.5082919915752607    0.5032461999070189    0.8197989379983105 Co
   0.4961704934433760    0.8328658743055717    0.1723552166017476 Co
   0.4974259939229252    0.8185119129767472    0.5155321377335678 Co
   0.5003812006069143    0.8321453676208707    0.8316449596209410 Co
   0.8324861988312738    0.1632807354416152    0.1709097922212001 Co
   0.8389752251415904    0.1627214358223680    0.5041296727641738 Co
   0.8231330342515867    0.1792480270096545    0.8284869908835357 Co
   0.8362684730928522    0.4967967082419968    0.1689559517864768 Co
   0.8379176981270685    0.4991289827178798    0.4966906104711053 Co
   0.8402981278660651    0.4918841940567075    0.8318450155372423 Co
   0.8310504496967901    0.8307115243455465    0.1717723354139331 Co
   0.8391262775630408    0.8281224863616228    0.5015716326146586 Co
   0.8298662639170397    0.8262065961395796    0.8414449430016351 Co
   0.2568421901622691    0.2631232071115795    0.2467326363191996 O
   0.2555318560629436    0.2520137837700033    0.5851413423202170 O
   0.2513583213433745    0.2491036799951690    0.9218940339847634 O
   0.2533561054199807    0.5953244079589959    0.2477755272226637 O
   0.2548836226174550    0.5870600457904578    0.5885741399741464 O
   0.2557940676728800    0.5860846061653857    0.9211303220106676 O
   0.2498016354510117    0.9256747881100460    0.2498151951264877 O
   0.2512226215163209    0.9179571442210028    0.5880696451866191 O
   0.2523476921022851    0.9125686953276474    0.9286155013571373 O
   0.5894255421843286    0.2427838419336131    0.2598239037645177 O
   0.5768210155760956    0.2615024770460239    0.5937379032353374 O
   0.5839627667112175    0.2563919484379031    0.9176790994172342 O
   0.5847788441377088    0.5875005443624410    0.2529168215587123 O
   0.5816706526440417    0.5892400113061294    0.5887272874907521 O
   0.5808690502768379    0.5868662118862669    0.9247363940160935 O
   0.5909879410364421    0.9158190700378680    0.2516585990604562 O
   0.5862499270348517    0.9172155448165501    0.5886472973948398 O
   0.5982865264449372    0.9175097149535977    0.9141036112907410 O
   0.9099957873617073    0.2588535416734652    0.2567413525450505 O
   0.9285881607301132    0.2481268180166931    0.5809904871304687 O
   0.9221684425790433    0.2509566642092980    0.9175258890914507 O
   0.9200420871926653    0.5888575278690316    0.2457544571677903 O
   0.9155569663658024    0.5912788404077771    0.5856074591654952 O
   0.9238424813497376    0.5868970363665386    0.9133982867631772 O
   0.9193457264832894    0.9217853079906673    0.2531009751005056 O
   0.9190980490875510    0.9168587802085532    0.5851353324283962 O
   0.9225127733479580    0.9194038239270793    0.9168340090730078 O
   0.0793515022091476    0.0779153321872697    0.0804693821454177 O
   0.0904411597950441    0.0717842962850319    0.4115311174818461 O
   0.0790197712262703    0.0768421736888562    0.7444114846761279 O
   0.0799015307732522    0.4191953632254256    0.0746243403137469 O
   0.0798493484279326    0.4209188761987145    0.4072121660216751 O
   0.0886045444485002    0.4118757683850599    0.7407812139610814 O
   0.0861589468443178    0.7548778409826575    0.0699738337313721 O
   0.0813550379498849    0.7444120666197790    0.4167038412099673 O
   0.0704360926266167    0.7603415602339969    0.7457870405808044 O
   0.4198431061986985    0.0778289843781175    0.0790652906281921 O
   0.4088159326132971    0.0780657429106382    0.4167376605555367 O
   0.4098075394633612    0.0854123149861807    0.7397591321345219 O
   0.4261576107068981    0.4101636980430211    0.0777563584820929 O
   0.4153364372310512    0.4160302642129861    0.4133459580027725 O
   0.4162668684869322    0.4145107918833799    0.7415324869258065 O
   0.4031979691157646    0.7442230803748486    0.0888563293441626 O
   0.4056952469922696    0.7504010020440156    0.4139197546561231 O
   0.4172343273707188    0.7428403675579036    0.7486189010222307 O
   0.7423287339953017    0.0779743250980793    0.0901439815897408 O
   0.7500777931702490    0.0843312867195482    0.4097343242900851 O
   0.7364978348117054    0.0822825749430487    0.7527557463465924 O
   0.7500130677219767    0.4120461243792660    0.0786796837853762 O
   0.7363824275201437    0.4154676098062122    0.4231678608603777 O
   0.7398660155582748    0.4156650778211058    0.7543933958010642 O
   0.7454323964592309    0.7516665947393718    0.0767099011322597 O
   0.7434517035130064    0.7418511903364127    0.4218353816033493 O
   0.7407641537861531    0.7466386229655824    0.7517651984090745 O
