Li20 Co27 O54
1.0
  14.1209132099999994   -4.2168848700000003   -0.0134986200000000
  14.1209132099999994    4.2168848700000003   -0.0134986200000000
  12.8685137100000002    0.0000000000000000    7.1821868699999998
Li Co O
20 27 54
direct
   0.0027256855304283    0.0049015530859911    0.3281288938127188 Li
   0.0044688141909640   -0.0072261991826083    0.6736605853408482 Li
   0.0013543107336842    0.3315322948876572   -0.0008877008729905 Li
   0.0020646296762534    0.3307014967618120    0.3339628559421546 Li
   0.0025759671679658    0.3293894588462363    0.6674211164014312 Li
   0.0009059185923891    0.6704322186142870   -0.0027729240167932 Li
  -0.0041048475714860    0.6688622959226236    0.3345787072515281 Li
  -0.0002743601164258    0.6656624103492657    0.6650404503891170 Li
   0.3284667893750873    0.0033411443297277    0.0011104328645664 Li
   0.3350541274258264    0.0011437209141000    0.3316421644222253 Li
   0.3288664045291262    0.0024366593734863    0.6691638494333484 Li
   0.3334079098037302    0.3376514937844380    0.3290858203475091 Li
   0.3293083891307595    0.6723104850643654   -0.0006894884357479 Li
   0.3299249109211181    0.6788161861293719    0.3286934956901485 Li
   0.6550730474972288    1.0057436689967307    0.0018350568672179 Li
   0.6713340096369376    0.9941156683640763    0.6671407963099022 Li
   0.6743606200321930    0.3355776008389467   -0.0091870987121969 Li
   0.6678674924258047    0.3332190442429729    0.6621973769472966 Li
   0.6552101855822967    0.6725876196358263    0.0086518036821958 Li
   0.6565625376139922    0.6691939691229825    0.6701654638867727 Li
   0.1681960773675040    0.1706586162657232    0.1682454212017735 Co
   0.1686133369065695    0.1765030092576272    0.4905947537161687 Co
   0.1711621765235271    0.1612617724592596    0.8354381849001971 Co
   0.1712707710386422    0.4960986487862782    0.1663813930448621 Co
   0.1563680075159994    0.5001548415043011    0.5088416565534005 Co
   0.1654988973595841    0.5022117205745001    0.8317529259666612 Co
   0.1639490127087755    0.8323433360577840    0.1662714294188263 Co
   0.1597160439344710    0.8338853490402285    0.5053636953921120 Co
   0.1674823974286950    0.8363602737508786    0.8297132424993018 Co
   0.5002228096633131    0.1741372245034723    0.1587887458429879 Co
   0.4947915072318285    0.1673366697552735    0.4993689802426491 Co
   0.4992561232270699    0.1636050898192453    0.8435868958055879 Co
   0.5009714985515560    0.4976076541170895    0.1702057692078321 Co
   0.4947522792556121    0.4992718777283471    0.5042872889427591 Co
   0.5083072140555327    0.4996827569824320    0.8258691032878980 Co
   0.4994218474040747    0.8405752220265879    0.1599680026934570 Co
   0.5036088615249664    0.8293245965808508    0.4976295914940631 Co
   0.4967663477239312    0.8352541784528174    0.8346548624856451 Co
   0.8422607517699005    0.1564986048549754    0.1656336618771279 Co
   0.8264338371247956    0.1655471562321773    0.5056869564439520 Co
   0.8329110453712421    0.1629289119941241    0.8315329995071068 Co
   0.8324570160892864    0.5023645807086659    0.1635714222554936 Co
   0.8364363482242674    0.4989042148143115    0.4967016692283017 Co
   0.8401417470441257    0.4934070046990525    0.8321787844402456 Co
   0.8352392091917427    0.8346252934620937    0.1665464357575946 Co
   0.8273742840578798    0.8278895599113428    0.5096915360360947 Co
   0.8334970599508420    0.8327620358388976    0.8351997961569884 Co
   0.2622944474294214    0.2515155043031376    0.2506335762634664 O
   0.2445425038802730    0.2584716415704342    0.5905197275683538 O
   0.2568939220524656    0.2508500100168416    0.9189354770213013 O
   0.2539600049992866    0.5862916933698352    0.2506630788537483 O
   0.2491206224414244    0.5825731743626004    0.5950309651334271 O
   0.2467499632338198    0.5963455091103395    0.9191363394327589 O
   0.2553936687211433    0.9219234986811410    0.2489486615071449 O
   0.2571127724966393    0.9255211414932816    0.5836979924795758 O
   0.2562559188362348    0.9185583260333738    0.9138885493372517 O
   0.5900482625055815    0.2584337917693307    0.2479226201425686 O
   0.5937837263344697    0.2422257835724017    0.5907131901581320 O
   0.5845452924031045    0.2464003369493082    0.9316677311575170 O
   0.5955259366194232    0.5806712794699949    0.2497013992925350 O
   0.5878975882990235    0.5864761337600559    0.5837969326843540 O
   0.5918747908763379    0.5866493547590533    0.9153524323123026 O
   0.5862704275876729    0.9215433223269272    0.2600556782437846 O
   0.5841930352469766    0.9156626287430814    0.5955316159803724 O
   0.5885794443491118    0.9185195281591759    0.9153048898501922 O
   0.9147299727921945    0.2525643407884468    0.2576420796901424 O
   0.9173596612441355    0.2508169908149166    0.5897925783137391 O
   0.9197278362099695    0.2490660249553396    0.9216224246640544 O
   0.9182825264742784    0.5806070754716861    0.2597349243946840 O
   0.9228571297978645    0.5891836774363746    0.5795119453817416 O
   0.9171801938109753    0.5914821061443160    0.9188896608579229 O
   0.9191181859975626    0.9174737080490081    0.2571370634598291 O
   0.9182580531822266    0.9198702337052178    0.5848153819762727 O
   0.9247629842399122    0.9182563520658954    0.9167050782932229 O
   0.0684523939397291    0.0927225157666700    0.0786737640269915 O
   0.0864193443639151    0.0833824318018952    0.4002364320273095 O
   0.0808394625232005    0.0747918102544898    0.7525637333578199 O
   0.0843314983112871    0.4077605940739845    0.0803883336214729 O
   0.0761748933287915    0.4116850010023962    0.4188238916123050 O
   0.0770276454161543    0.4094898158548067    0.7541066285351717 O
   0.0731217690394703    0.7421771498309037    0.0896150404236935 O
   0.0798525459392031    0.7416437117485950    0.4201626767203654 O
   0.0766209309611982    0.7457099668702210    0.7458842176935166 O
   0.4144830599419868    0.0769629856555715    0.0844219141695645 O
   0.4149369057906825    0.0787383228543672    0.4157822119223043 O
   0.4198484899708305    0.0825102446624676    0.7428152778670255 O
   0.4110688649421102    0.4175563582454567    0.0770226456449360 O
   0.4177053266828902    0.4064508715014847    0.4142656600099415 O
   0.4238428202500197    0.4033800025215680    0.7513508692847941 O
   0.4051774402026389    0.7522922902660003    0.0805643865709954 O
   0.4128546707360727    0.7409737788073165    0.4245549352386960 O
   0.4140865612343638    0.7510639133490724    0.7463641141700114 O
   0.7493676407408012    0.0830945179478456    0.0737483162537083 O
   0.7520330830872060    0.0823176767689098    0.4067672397335909 O
   0.7430632122461600    0.0828013793964871    0.7470728244381798 O
   0.7489802574599601    0.4128032265804726    0.0765808280665279 O
   0.7536726072966512    0.4116133112508549    0.4077370065684541 O
   0.7526518978725703    0.4094195795469535    0.7449356489275113 O
   0.7455915520626455    0.7539237876563566    0.0757629047795626 O
   0.7434263292829282    0.7445375374226522    0.4109066136167344 O
   0.7404877232035052    0.7487268377427765    0.7474559353652616 O
