Li20 Co27 O54
1.0
  14.1209132099999994   -4.2168848700000003   -0.0134986200000000
  14.1209132099999994    4.2168848700000003   -0.0134986200000000
  12.8685137100000002    0.0000000000000000    7.1821868699999998
Li Co O
20 27 54
direct
   0.0023633208323980   -0.0029229637354911   -0.0000901781665353 Li
   0.0123024407877084   -0.0052877418044257    0.3299828593504157 Li
  -0.0004533683864750    0.0000742161418024    0.6678954486797485 Li
   0.0004237974257813    0.3415913160166330   -0.0074413993852177 Li
   0.0002931038142814    0.3305935848573989    0.3350600850759472 Li
   0.0054897843983842    0.3330092604094907    0.6708654894184541 Li
   0.0019100969133925    0.6729705632529502   -0.0082941202327379 Li
  -0.0120810532628037    0.6775906060499665    0.6693807539441038 Li
   0.3325929304629826    0.0117456653245956   -0.0111083672393062 Li
   0.3378886520629617    0.3349436459570036   -0.0023172892646975 Li
   0.3190404163196860    0.3415436974341477    0.3390659493203574 Li
   0.3291120279983842    0.3351565110040473    0.6687534376966536 Li
   0.3315955196963629    0.6663967321910588    0.0002274433474292 Li
   0.3379111995334493    0.6711445551592444    0.6598284511388208 Li
   0.6631063791362819    1.0060638489232534   -0.0041289916047488 Li
   0.6597559998896315    0.0066240781143927    0.3324126481883147 Li
   0.6651559635043880    0.9994786250888219    0.6699557673589314 Li
   0.6699131845401668    0.3379153624760221    0.3274936621485749 Li
   0.6691516493445478    0.3368989811864892    0.6596641843751243 Li
   0.6633271365223933    0.6617971825224758    0.6766730606303730 Li
   0.1647947706607622    0.1660333812361329    0.1642242488811380 Co
   0.1657738391810467    0.1640631098304393    0.5027614552839543 Co
   0.1670601503971107    0.1730650626184669    0.8280134732643568 Co
   0.1656192770936247    0.5077546589638590    0.1601551834694994 Co
   0.1698717140010543    0.4970240802408874    0.4996395575210144 Co
   0.1656969192466948    0.4988861318451306    0.8337627851318783 Co
   0.1667483570215593    0.8373238330782551    0.1608075049542177 Co
   0.1718912346544575    0.8326928067994355    0.4951930379084400 Co
   0.1667130098904813    0.8264416567793349    0.8409596266939805 Co
   0.5059431662420456    0.1667451674321418    0.1600947485313243 Co
   0.4998825006500942    0.1651662374751058    0.4999456211225938 Co
   0.5022331964286229    0.1571927379488707    0.8406727248047117 Co
   0.5080135223590974    0.4809510635626683    0.1776577760377720 Co
   0.5069949792271501    0.4983783781123950    0.4919504234941710 Co
   0.5056541220973212    0.5010102423537923    0.8285956296482034 Co
   0.5034221087962376    0.8301536321397097    0.1676455919657245 Co
   0.4916599325388617    0.8380278278009001    0.5027066195354871 Co
   0.5018150347424366    0.8314841832643209    0.8319488501210842 Co
   0.8345091607107925    0.1612094896341250    0.1716243728903170 Co
   0.8418676407716124    0.1662895489313181    0.4971986477042462 Co
   0.8416862840519895    0.1639566812404994    0.8276495602507996 Co
   0.8326626315905878    0.4902234078629325    0.1709781592053344 Co
   0.8381003787497532    0.5040635516615575    0.4931115962375675 Co
   0.8385440461294591    0.4991519944888549    0.8327522463165105 Co
   0.8309495784267995    0.8307533084690917    0.1697260739531332 Co
   0.8367089095611852    0.8299652819788911    0.4999323929600031 Co
   0.8381253852153991    0.8358770088655145    0.8277643346647243 Co
   0.2517932301355577    0.2600905499643698    0.2510404253156055 O
   0.2484515040269576    0.2554156622550201    0.5915900124639769 O
   0.2545737554466493    0.2500412109173167    0.9198420240968117 O
   0.2535244746171244    0.5932664210551851    0.2484071006495100 O
   0.2627534460857567    0.5791723694564621    0.5850746152359066 O
   0.2601343550677482    0.5845646001823976    0.9179881586014986 O
   0.2539481995683712    0.9256262517312601    0.2460306538952531 O
   0.2510380148168557    0.9122764537716836    0.5910953661720683 O
   0.2580351376403476    0.9163671628260170    0.9195229012620898 O
   0.5835276720516844    0.2513844221996506    0.2590048964689566 O
   0.5972647703534519    0.2515673225001789    0.5757468388487119 O
   0.5812051840083148    0.2543847801888338    0.9196686375356442 O
   0.5911377525200521    0.5826548109593358    0.2508423944479173 O
   0.5863089495805218    0.5840284652227541    0.5917237214599406 O
   0.5809506815909277    0.5922108661006523    0.9174893361371429 O
   0.5909593958979487    0.9107721225184668    0.2581940061527204 O
   0.5882660446591909    0.9171530603208483    0.5881486552184625 O
   0.5850805398118935    0.9230612953963144    0.9195509371669112 O
   0.9190713960858603    0.2605855629969361    0.2510489215778829 O
   0.9171454505290301    0.2557220727648545    0.5888714720505119 O
   0.9170161472061283    0.2604296463991501    0.9208791861541147 O
   0.9113375253497061    0.5882809670047378    0.2592379632901262 O
   0.9199036688591621    0.5950405162202390    0.5806435539067547 O
   0.9241035402020666    0.5869715826422987    0.9187748948451515 O
   0.9279507770998161    0.9079174991061494    0.2523275713998672 O
   0.9335952546755875    0.9114138714383340    0.5839739467303389 O
   0.9170678904365058    0.9191992008809508    0.9275937749949136 O
   0.0763080021259127    0.0808275269444888    0.0841517508727918 O
   0.0722331447807503    0.0765489634654830    0.4233033084273604 O
   0.0792015496492399    0.0848138908796430    0.7372785333161844 O
   0.0835349940109322    0.4192701078815828    0.0764255709163568 O
   0.0780119873760978    0.4174085528524932    0.4120892091748150 O
   0.0814026059537191    0.4099051861555263    0.7482595079260433 O
   0.0771358352060481    0.7506321092849316    0.0770127735483425 O
   0.0842619051383120    0.7378652903783268    0.4139904892305211 O
   0.0801184058869451    0.7434301748681256    0.7483118035184101 O
   0.4060537494456056    0.0888375020167930    0.0795726711541892 O
   0.4034677483005049    0.0897710566275086    0.4154870566043197 O
   0.4158666226432418    0.0699985760823447    0.7574331984986782 O
   0.4185340017860934    0.4061482967801380    0.0845892288889610 O
   0.4132533214154690    0.4138316647186254    0.4172869674387903 O
   0.4097323792551689    0.4171278834074021    0.7494376493150720 O
   0.4101820348827887    0.7527444069557047    0.0800218633700325 O
   0.4146278189147588    0.7420164333603321    0.4158237583450765 O
   0.4160793660256788    0.7402756932810639    0.7515983215802591 O
   0.7481903268278339    0.0891153123046220    0.0731523183598910 O
   0.7524037251722547    0.0710478129449031    0.4170797936801131 O
   0.7456300906394324    0.0843617159634965    0.7429837517216082 O
   0.7449150874983550    0.4083869568678996    0.0864711923894267 O
   0.7341016424145252    0.4219524336620815    0.4199773938490429 O
   0.7507404855894448    0.4124747360267126    0.7471241226898133 O
   0.7428440704567582    0.7486885241181842    0.0791727673403888 O
   0.7461702711773927    0.7547366297479302    0.4056942957594459 O
   0.7425524138161190    0.7528168578241787    0.7525687846072375 O
