Li20 Co27 O54
1.0
  14.1209132099999994   -4.2168848700000003   -0.0134986200000000
  14.1209132099999994    4.2168848700000003   -0.0134986200000000
  12.8685137100000002    0.0000000000000000    7.1821868699999998
Li Co O
20 27 54
direct
  -0.0142022171448938    0.0033112136164861    0.3391500874403100 Li
  -0.0022455859540890   -0.0022948980172489    0.6674574220142369 Li
  -0.0053239790204675    0.3367113502326671    0.0029456565818140 Li
   0.0048864290280513    0.3326623192834515    0.6605701137237082 Li
   0.0042305714048314    0.6651294862942096    0.3334189498762082 Li
  -0.0029654405552352    0.6656308720678252    0.6686127959593550 Li
   0.3451336225147243   -0.0100146138748389    0.3326738380352926 Li
   0.3277039987801335   -0.0046662466785640    0.6760196972811464 Li
   0.3443337390958199    0.3282205876413695    0.3334650349993267 Li
   0.3318513571084123    0.6652964680077643   -0.0013412334132698 Li
   0.3394011932651406    0.6520641175206311    0.3414646239096122 Li
   0.3181824585600845    0.6754228487252696    0.6734071476868176 Li
   0.6652356115141329    1.0045307242554657   -0.0000046840354936 Li
   0.6679507115662836    0.9971366210984590    0.6692389465008969 Li
   0.6597085762717307    0.3304189598028823    0.0095922455292833 Li
   0.6664497266793864    0.3360734250486350    0.3279293225021078 Li
   0.6724748732002046    0.3314950556071853    0.6611829875878599 Li
   0.6696820290338454    0.6712125104788861   -0.0114901098443836 Li
   0.6612161211028388    0.6747174822556540    0.3354444082314659 Li
   0.6637206311134902    0.6707769117586924    0.6674563095908146 Li
   0.1697822541205156    0.1628202045075572    0.1668836017288067 Co
   0.1702029207435178    0.1543553142120035    0.5055307623469217 Co
   0.1681894151686527    0.1638124278803340    0.8367665252156566 Co
   0.1598716332975104    0.5053431535214652    0.1711931689804025 Co
   0.1605136086077925    0.5043258398882022    0.4998129972529017 Co
   0.1601843986386088    0.5030331525138194    0.8374961409709777 Co
   0.1589137511860168    0.8300362694281703    0.1726227746543327 Co
   0.1692335573857436    0.8336506336700280    0.4959854749142621 Co
   0.1686567205990704    0.8381971073521350    0.8290489157318650 Co
   0.5086628220914151    0.1731001441124951    0.1551862067768298 Co
   0.4933897478384616    0.1734703676728460    0.4980766124307363 Co
   0.5057885215085711    0.1632504323386221    0.8320270494660605 Co
   0.5002439430371654    0.4908275758100157    0.1727495748680506 Co
   0.4952119423276363    0.5034529155676866    0.4947501358597082 Co
   0.4986027878387947    0.5057011989642698    0.8281175189953668 Co
   0.4964967621756856    0.8360398840923879    0.1663631383248886 Co
   0.5039787855054692    0.8284605337330007    0.5003143254745043 Co
   0.4938203908699663    0.8293269207318503    0.8428148134849303 Co
   0.8387309339878727    0.1674605640386242    0.1622453839429863 Co
   0.8321077438324788    0.1636713539586433    0.5013212574446356 Co
   0.8252624149493015    0.1679489971593940    0.8419463888517724 Co
   0.8315221951697951    0.5131169780061561    0.1582138778837394 Co
   0.8347195946072499    0.4995662322807153    0.4998117204327413 Co
   0.8307277837523802    0.4961871457809502    0.8325022721619554 Co
   0.8325210605175944    0.8283901664571571    0.1769370340568331 Co
   0.8331219800029841    0.8350639062503982    0.4999436127554437 Co
   0.8374075330667365    0.8311202082914657    0.8302297143503096 Co
   0.2490506192343016    0.2560088984217943    0.2500209499044128 O
   0.2529227958349100    0.2456647850477320    0.5878788526868289 O
   0.2504140199700352    0.2561710971727800    0.9172723340046702 O
   0.2657258024355752    0.5871429145240519    0.2423603818867293 O
   0.2625126260610409    0.5801696694129417    0.5837924942000657 O
   0.2511634635976164    0.5965039902616395    0.9114591902801599 O
   0.2579566976864255    0.9187637948520335    0.2487845194600883 O
   0.2547067339401298    0.9228869835275688    0.5804567173544574 O
   0.2508450107423657    0.9245709544868952    0.9147700937138803 O
   0.5734100132115519    0.2585289892799558    0.2527461216249993 O
   0.5727721515607606    0.2586254745262868    0.5916633778397227 O
   0.5920401014440988    0.2503037478245064    0.9174138495630081 O
   0.5806568779103898    0.5867239276600286    0.2601816882065043 O
   0.5934973440907880    0.5801835316551025    0.5845870712629326 O
   0.5924297861544554    0.5827535279554099    0.9166684404111908 O
   0.5795526159998998    0.9214077178452338    0.2556833191476480 O
   0.5855276136436978    0.9230809905341588    0.5843581178791795 O
   0.5836332791312233    0.9138596126135961    0.9250671596393156 O
   0.9157772761795311    0.2586373801979088    0.2550805394776470 O
   0.9143489005053925    0.2560080268876430    0.5887010847395492 O
   0.9237390922372357    0.2561774620309143    0.9148417840879703 O
   0.9153871312581776    0.5895401383906019    0.2539668753647082 O
   0.9186345297662244    0.5828623061627883    0.5900312856889842 O
   0.9147047193395853    0.5884792325718616    0.9213316891376565 O
   0.9231816654581243    0.9150700399023103    0.2546598789167772 O
   0.9236295343801511    0.9185572053694258    0.5844544961557284 O
   0.9148613116422781    0.9274987584161709    0.9209937436610747 O
   0.0809418039679031    0.0755716661777563    0.0831694495969690 O
   0.0678293629465604    0.0919849982369056    0.4103772986906853 O
   0.0774906255264322    0.0808008185942435    0.7458218707752960 O
   0.0795580684844321    0.4121538061918446    0.0835463172079738 O
   0.0852977251099242    0.4107390112086917    0.4104097138827429 O
   0.0766269290972070    0.4160438979716691    0.7453474290067996 O
   0.0739328425317491    0.7570623320885977    0.0798496933596483 O
   0.0724432690514940    0.7434502678095194    0.4216128264555991 O
   0.0863993792981201    0.7393658691894649    0.7480244879905287 O
   0.4111582790762461    0.0839082998753291    0.0791435124081570 O
   0.4090688494013945    0.0939536047045025    0.4048098681069938 O
   0.4135933048854695    0.0801718862010671    0.7456635856201521 O
   0.4115042845823768    0.4122145868893500    0.0797094206903984 O
   0.4105268600615981    0.4082525406805176    0.4207774148223647 O
   0.4206791758543597    0.4138311753257248    0.7368051086276544 O
   0.4149509089027857    0.7421968598732838    0.0764268961291424 O
   0.4096847645317906    0.7542902632719219    0.4108871729924394 O
   0.4158474926540761    0.7471540102192786    0.7460035036990371 O
   0.7397442381648605    0.0849564445953908    0.0842293821059093 O
   0.7433362128820651    0.0854545753833026    0.4168309099009166 O
   0.7467075628245059    0.0870898142142411    0.7441028862767292 O
   0.7459925301750227    0.4131727143914783    0.0829629753869360 O
   0.7472723878500619    0.4008352918016818    0.4238230383731231 O
   0.7428586997093753    0.4168331025055761    0.7497385919486081 O
   0.7434297344853724    0.7430629148495839    0.0846581885542503 O
   0.7430847654066968    0.7440233648901727    0.4197470078691253 O
   0.7514842501174017    0.7412045572496098    0.7470452465511923 O
