Li20 Co24 O48
1.0
   5.6225139500000001    0.0000000000000000    0.0000000000000003
  -2.8112569749999983    4.8692399138323905    0.0000000000000003
   0.0000000000000000    0.0000000000000000   27.8189128699999983
Li Co O
20 24 48
direct
   0.0135794400000000    0.0130803400000000    0.4984271200000000 Li
   0.9978884400000000    0.4910891200000000    0.9994548700000000 Li
   0.9995443700000000    0.5042311300000000    0.5005084100000000 Li
   0.5057819500000000    0.0063267200000000    0.9992302800000000 Li
   0.4850806400000000    0.9987901300000001    0.4998211600000000 Li
   0.4883287200000000    0.4983001000000000    0.0006487000000000 Li
   0.4867580300000000    0.5026472500000000    0.4972518800000000 Li
   0.3378744300000000    0.1736144000000000    0.1679056700000000 Li
   0.3403768200000000    0.1689139800000000    0.6676396400000000 Li
   0.3329131600000000    0.6694813300000000    0.1663987400000000 Li
   0.3401300200000000    0.6795776400000000    0.6650167700000000 Li
   0.8335855300000000    0.1669278200000000    0.6664405700000000 Li
   0.8211476900000000    0.6515514800000000    0.1670080400000000 Li
   0.8101631900000000    0.6504676400000000    0.6689978200000000 Li
   0.1681144000000000    0.3230287900000000    0.8339558200000000 Li
   0.1690015700000000    0.8326802100000000    0.3329853100000000 Li
   0.6812731200000000    0.3526866600000000    0.3342149500000000 Li
   0.6728559100000000    0.3377751100000000    0.8334098200000000 Li
   0.6663853500000000    0.8364129600000000    0.3344082600000000 Li
   0.6618832300000000    0.8375165400000000    0.8333205600000000 Li
   0.1699722300000000    0.3376330100000000    0.0844811700000000 Co
   0.1819589300000000    0.3374133200000000    0.5815882999999999 Co
   0.1794824800000000    0.8423398100000000    0.0839832100000000 Co
   0.1705695400000000    0.8368497000000000    0.5823864000000000 Co
   0.6678830800000000    0.3342884800000000    0.0853228900000000 Co
   0.6791488400000000    0.3281422300000000    0.5833020200000000 Co
   0.6844095100000001    0.8452965000000000    0.0843862000000000 Co
   0.6668392200000000    0.8269741200000000    0.5829847400000000 Co
   0.5022419000000000    0.4943623100000000    0.2499305100000000 Co
   0.4968818500000000    0.5178529300000000    0.7495099100000000 Co
   0.4997837700000000    0.9923510400000000    0.2482279600000000 Co
   0.4996013100000000    0.0058663000000001    0.7500895100000000 Co
   0.0065572300000001    0.5122117200000000    0.2502569700000000 Co
   0.9906185100000000    0.5044088799999999    0.7504668799999999 Co
   0.0076187500000000    0.0078441200000000    0.2485253500000000 Co
   0.9842778700000000    0.9930199000000000    0.7486769100000000 Co
   0.3244478600000000    0.1658633100000000    0.4159851000000000 Co
   0.3466628600000000    0.1651060200000000    0.9152137400000000 Co
   0.3372258000000000    0.6599921200000000    0.4175582000000000 Co
   0.3241876900000000    0.6658539700000000    0.9172107000000000 Co
   0.8434829300000000    0.1677438700000000    0.4176191300000000 Co
   0.8230661100000000    0.1645076200000000    0.9177002900000000 Co
   0.8234194200000000    0.6624274600000000    0.4149337000000000 Co
   0.8262006200000001    0.6662328199999999    0.9169549400000000 Co
   0.0100729300000000    0.9911071000000000    0.1203177500000000 O
   0.9931922900000000    0.9960460700000000    0.6221942499999999 O
   0.0093871500000000    0.5022151500000001    0.1227343300000000 O
   0.0032325400000000    0.5158231500000000    0.6210657200000000 O
   0.4932983200000000    0.9889417500000000    0.1178839600000000 O
   0.5076461700000000    0.9977672900000000    0.6181661600000000 O
   0.5017135400000000    0.4986010400000000    0.1189581000000000 O
   0.4979889400000000    0.5073717100000000    0.6198882700000000 O
   0.3477160900000000    0.1762269600000000    0.0477360500000000 O
   0.3324403100000000    0.1570892900000000    0.5462472000000000 O
   0.3066309900000000    0.6475066700000000    0.0452452300000000 O
   0.3439731400000000    0.6716928400000000    0.5460889200000000 O
   0.8412669100000000    0.1617954800000000    0.0464230800000000 O
   0.8331272199999999    0.1578990700000000    0.5431955000000001 O
   0.8344977000000000    0.6574305800000000    0.0466140300000000 O
   0.8445624700000000    0.6815167100000000    0.5483504000000000 O
   0.3362686900000000    0.1805371100000000    0.2858667000000000 O
   0.3212622800000000    0.1681718200000000    0.7861239300000000 O
   0.3311755800000000    0.6587372900000000    0.2854277800000000 O
   0.3304515200000000    0.6599975000000000    0.7887340600000000 O
   0.8360330100000000    0.1696978100000000    0.2870190500000000 O
   0.8459149800000000    0.1770265900000000    0.7871458000000000 O
   0.8317994600000000    0.6643145200000000    0.2852912600000000 O
   0.8395904199999999    0.6629375000000000    0.7865323500000000 O
   0.1759216100000000    0.3285724200000000    0.2123915100000000 O
   0.1413185900000000    0.3111224900000000    0.7127403600000000 O
   0.1619830600000000    0.8196153400000000    0.2113555900000000 O
   0.1607268300000000    0.8300865400000000    0.7134818200000000 O
   0.6731470700000000    0.3432196000000000    0.2108573800000000 O
   0.6591351500000000    0.3337018500000000    0.7130022900000000 O
   0.6726250900000000    0.8345849800000000    0.2148841400000000 O
   0.6619956299999999    0.8299717200000000    0.7132581900000000 O
   0.1786229000000000    0.3419853300000000    0.4552941800000000 O
   0.1763121100000000    0.3310278500000000    0.9541104400000000 O
   0.1594895500000000    0.8308310300000000    0.4532712200000000 O
   0.1752370100000000    0.8288633600000000    0.9511785600000000 O
   0.6674137200000000    0.3393222500000000    0.4505119000000000 O
   0.6808719900000000    0.3643398100000000    0.9519292600000000 O
   0.6574888400000000    0.8379117900000000    0.4528565600000000 O
   0.6775091000000000    0.8340268700000000    0.9552583000000000 O
   0.9985230600000000    0.0082287500000000    0.3787646900000000 O
   0.0129141000000000    0.0127581800000000    0.8801081600000000 O
   0.9892577900000000    0.4941841600000000    0.3793554700000000 O
   0.9913982300000000    0.5009604300000000    0.8813292500000000 O
   0.5118032000000000    0.0177877300000000    0.3794379300000000 O
   0.5066112200000000    0.0013187700000000    0.8804256700000000 O
   0.5055377200000000    0.4973039500000000    0.3802598300000000 O
   0.4987575600000000    0.4976849900000000    0.8795094200000000 O
