Li22 Co24 O48
1.0
   5.6225139500000001    0.0000000000000000    0.0000000000000003
  -2.8112569749999983    4.8692399138323905    0.0000000000000003
   0.0000000000000000    0.0000000000000000   27.8189128699999983
Li Co O
22 24 48
direct
   0.0145473200000000    0.9970810500000000    0.9972977000000000 Li
   0.9898508200000000    0.0030392900000000    0.5004363200000000 Li
   0.9974250800000000    0.4985714000000000    0.9992675500000000 Li
   0.9969218100000000    0.5048295900000001    0.5032269600000000 Li
   0.4994970000000000    0.0090484600000000    0.0003953100000000 Li
   0.4827916700000000    0.0006232800000000    0.4994617200000000 Li
   0.5042476800000000    0.4943007500000000    0.4997439900000000 Li
   0.3209255500000000    0.1584645600000000    0.1655871200000000 Li
   0.3133812400000000    0.1579047000000000    0.6676939400000000 Li
   0.3377083400000000    0.6536447900000000    0.1673484200000000 Li
   0.3280038000000000    0.6655484400000000    0.6641061300000000 Li
   0.8308856700000000    0.1655959600000000    0.1666743100000000 Li
   0.8394477500000000    0.1665329600000000    0.6662659500000000 Li
   0.8423202400000001    0.6771025000000001    0.6645072000000000 Li
   0.1655358300000000    0.3284880000000000    0.3330135400000000 Li
   0.1658646200000000    0.3374098900000000    0.8320076900000000 Li
   0.1777999000000000    0.8423690000000000    0.3345939600000000 Li
   0.1616268300000000    0.8302841399999999    0.8341774600000000 Li
   0.6784444600000000    0.3407096600000000    0.3331080500000000 Li
   0.6786163400000000    0.3397517200000000    0.8344741700000000 Li
   0.6772943800000000    0.8259417000000000    0.3331938800000000 Li
   0.6678443300000000    0.8468767200000000    0.8341797300000000 Li
   0.1632439800000000    0.3259909300000000    0.0834512500000000 Co
   0.1700095800000000    0.3251734700000000    0.5846980300000000 Co
   0.1535858600000000    0.8281530700000000    0.0819814500000000 Co
   0.1668949700000000    0.8280496400000000    0.5862811300000000 Co
   0.6640425800000000    0.3341978700000000    0.0866223100000000 Co
   0.6589024100000000    0.3282041800000000    0.5829542900000000 Co
   0.6741019100000000    0.8273116800000000    0.0857809700000000 Co
   0.6547009400000000    0.8245756300000000    0.5845960800000000 Co
   0.4959202300000000    0.5027652400000000    0.2494113600000000 Co
   0.4961567400000000    0.5005669600000000    0.7466197500000000 Co
   0.4986651900000000    0.0038224899999999    0.2498584500000000 Co
   0.4867470400000000    0.9823274700000000    0.7490046800000000 Co
   0.0165550900000000    0.5083242700000000    0.2493899200000000 Co
   0.0026129699999999    0.4907421300000000    0.7491830600000000 Co
   0.9953543400000000    0.0039820300000000    0.2518561200000000 Co
   0.0062033000000000    0.0087911300000000    0.7479921000000000 Co
   0.3279929100000000    0.1604027100000000    0.4175320300000000 Co
   0.3279739100000000    0.1619750800000000    0.9145911500000000 Co
   0.3298703300000000    0.6589513700000000    0.4157706500000000 Co
   0.3306597500000000    0.6783793000000000    0.9162437400000000 Co
   0.8300739800000000    0.1743823300000000    0.4192777200000000 Co
   0.8316129400000000    0.1647922200000000    0.9168463700000000 Co
   0.8310359300000000    0.6642019900000000    0.4167796400000000 Co
   0.8347090600000000    0.6662911400000000    0.9183045600000000 Co
   0.9867431300000000    0.0010239000000000    0.1175507200000000 O
   0.0043350300000000    0.9905255800000000    0.6210438300000000 O
   0.0101134600000000    0.4946327400000000    0.1218792600000000 O
   0.0018787900000000    0.4881462100000000    0.6183710200000000 O
   0.4983312500000000    0.0099324900000000    0.1207954400000000 O
   0.4926275100000000    0.0109430800000000    0.6207700500000000 O
   0.4855305600000000    0.4834705400000000    0.1220749600000000 O
   0.5080915100000000    0.5016654100000000    0.6189560500000000 O
   0.3463049000000000    0.1756331700000000    0.0471256700000000 O
   0.3298831000000000    0.1656183000000000    0.5470690700000000 O
   0.3312212400000000    0.6698082300000000    0.0491921100000000 O
   0.3478550600000000    0.6773908600000000    0.5463200100000000 O
   0.8218690400000001    0.1675290900000000    0.0452738700000000 O
   0.8274186800000000    0.1549536900000000    0.5499059100000000 O
   0.8241350700000000    0.6711515700000000    0.0453104400000000 O
   0.8315212199999999    0.6736261700000000    0.5480985600000000 O
   0.3336383500000000    0.1717162500000000    0.2861516600000000 O
   0.3328405700000000    0.1662568100000000    0.7863152500000000 O
   0.3262829300000000    0.6484356900000000    0.2875663700000000 O
   0.3372445400000000    0.6758324400000000    0.7862315900000000 O
   0.8416377900000001    0.1720575100000000    0.2876485300000000 O
   0.8324308000000000    0.1667376900000000    0.7864359700000000 O
   0.8327299700000000    0.6772146600000000    0.2846234100000000 O
   0.8336760100000000    0.6791482800000000    0.7868171800000000 O
   0.1711573200000000    0.3332730600000000    0.2142107600000000 O
   0.1717707400000000    0.3291701900000000    0.7116006200000000 O
   0.1653151000000000    0.8239748500000000    0.2136927300000000 O
   0.1609024800000000    0.8300620000000000    0.7110717800000000 O
   0.6606042400000000    0.3279758100000000    0.2152969700000000 O
   0.6611051300000000    0.3284792000000000    0.7110744500000000 O
   0.6606647600000000    0.8127386800000000    0.2124769600000000 O
   0.6571352300000000    0.8302416300000000    0.7150436200000000 O
   0.1622207600000000    0.3444839600000000    0.4532899000000000 O
   0.1734745900000000    0.3363001000000000    0.9521931100000000 O
   0.1600868500000000    0.8255972300000000    0.4530797400000000 O
   0.1634931500000000    0.8271479500000000    0.9554344000000000 O
   0.6726428600000000    0.3396573300000000    0.4550111000000000 O
   0.6800157200000000    0.3335926900000000    0.9517952800000000 O
   0.6624020600000000    0.8356801700000001    0.4538428000000000 O
   0.6568989200000001    0.8287594300000000    0.9536318100000000 O
   0.9790581200000000    0.9820235800000000    0.3788944700000000 O
   0.9894738400000000    0.9985840499999999    0.8794628400000000 O
   0.0085713700000000    0.5119878600000000    0.3823162400000000 O
   0.0122792800000000    0.5155543100000000    0.8793459600000000 O
   0.5047520500000000    0.9981740200000000    0.3813608500000000 O
   0.5018681300000000    0.0093612300000000    0.8815423100000001 O
   0.4960661100000000    0.5135160400000000    0.3810825400000000 O
   0.5066454200000000    0.4968748800000000    0.8806514600000001 O
