Li19 Co24 O48
1.0
   5.6225139500000001    0.0000000000000000    0.0000000000000003
  -2.8112569749999983    4.8692399138323905    0.0000000000000003
   0.0000000000000000    0.0000000000000000   27.8189128699999983
Li Co O
19 24 48
direct
   0.0077266300000000    0.9956174000000000    0.0007905000000000 Li
   0.9980307300000000    0.0076886400000000    0.5012782500000000 Li
   0.0151785600000000    0.4995755100000000    0.0001074400000000 Li
   0.0138732600000000    0.5009816700000000    0.4977939400000000 Li
   0.5026809000000000    0.9891629700000000    0.0000415100000000 Li
   0.5088975999999999    0.0109391200000000    0.5030893400000001 Li
   0.5132771900000000    0.5176790200000000    0.9978244200000000 Li
   0.3297699900000000    0.1682422500000000    0.1658116300000000 Li
   0.3454205600000000    0.6657972700000000    0.6661865500000000 Li
   0.8250842000000000    0.1627619600000000    0.1640501400000000 Li
   0.8311070699999999    0.1636573900000000    0.6654377200000000 Li
   0.8369653300000000    0.6718037800000000    0.1651372800000000 Li
   0.8271003800000000    0.6629937600000000    0.6674961600000000 Li
   0.1688975200000000    0.3335704500000000    0.3334477000000000 Li
   0.1708424600000000    0.3383396900000000    0.8327023000000000 Li
   0.1724991200000000    0.8312589600000000    0.8324353600000000 Li
   0.6721974800000000    0.3338576500000000    0.3331027800000000 Li
   0.6780183200000000    0.8392443700000000    0.3348488100000000 Li
   0.6767630400000000    0.8545749400000000    0.8319736599999999 Li
   0.1741509300000000    0.3461154700000000    0.0841953300000000 Co
   0.1675192300000000    0.3346990700000000    0.5830349600000000 Co
   0.1671167700000000    0.8322828300000000    0.0839975800000000 Co
   0.1702944200000000    0.8406987200000000    0.5823152200000000 Co
   0.6830874400000000    0.3328340100000000    0.0838625200000000 Co
   0.6700820000000000    0.3385259900000000    0.5820581000000000 Co
   0.6590585900000000    0.8243589400000000    0.0835125200000000 Co
   0.6744925100000000    0.8372606900000000    0.5833457000000000 Co
   0.5059462600000000    0.4999183200000000    0.2530816100000000 Co
   0.4985878500000000    0.5002897600000000    0.7492429100000000 Co
   0.4928591000000000    0.9877343000000000    0.2519746700000000 Co
   0.5009659600000000    0.0020176999999999    0.7514670200000000 Co
   0.9978910700000000    0.5071201000000000    0.2511773000000000 Co
   0.0214544900000000    0.5140930900000000    0.7505849800000000 Co
   0.9996076200000000    0.0115604800000000    0.2486978900000000 Co
   0.9777632700000000    0.9904555300000000    0.7495429300000001 Co
   0.3258174500000000    0.1554721500000000    0.4185309400000000 Co
   0.3356810000000000    0.1630608700000000    0.9165614100000000 Co
   0.3208501700000000    0.6559249200000000    0.4183237000000000 Co
   0.3462890100000000    0.6566841400000000    0.9158216400000000 Co
   0.8425708300000000    0.1785590100000000    0.4196671300000000 Co
   0.8255734900000000    0.1700344100000000    0.9136185999999999 Co
   0.8377377900000000    0.6596479400000000    0.4155981700000000 Co
   0.8289841400000000    0.6578572800000000    0.9168601500000000 Co
   0.9932437400000000    0.0084785400000000    0.1208549400000000 O
   0.0028191400000000    0.0108435700000000    0.6220453900000000 O
   0.9942231100000000    0.4946609300000000    0.1199460900000000 O
   0.9967975700000000    0.4922493900000000    0.6200927000000001 O
   0.5231896400000000    0.0085364500000000    0.1197360500000000 O
   0.5022627600000000    0.9938648800000000    0.6203492200000000 O
   0.5037806900000000    0.5021129700000000    0.1188514400000000 O
   0.4886038000000000    0.5036479200000000    0.6203836600000000 O
   0.3364488200000000    0.1606693000000000    0.0462262100000000 O
   0.3320553000000000    0.1684518600000000    0.5459577100000000 O
   0.3447509200000000    0.6597249500000000    0.0470056200000000 O
   0.3310067500000000    0.6727237600000000    0.5466908200000000 O
   0.8344488000000000    0.1617752900000000    0.0467187100000000 O
   0.8314135499999999    0.1544660000000000    0.5472241400000000 O
   0.8191074200000000    0.6559833200000000    0.0473862200000000 O
   0.8280330200000000    0.6600454000000000    0.5459395800000000 O
   0.3421469600000000    0.1766771800000000    0.2860363400000000 O
   0.3330808200000000    0.1705144000000000    0.7890979700000000 O
   0.3227687700000000    0.6699037200000000    0.2842424300000000 O
   0.3308400500000000    0.6582302799999999    0.7866354000000000 O
   0.8232996900000000    0.1624523400000000    0.2879455800000000 O
   0.8530102000000001    0.1855516900000000    0.7873587000000000 O
   0.8309498800000000    0.6660557100000000    0.2871985700000000 O
   0.8314953700000000    0.6730864000000000    0.7842868000000000 O
   0.1550332400000000    0.3351456700000000    0.2152513900000000 O
   0.1537355600000000    0.3222190500000000    0.7126229900000000 O
   0.1696127400000000    0.8331499900000000    0.2104418000000000 O
   0.1765313600000000    0.8432723600000001    0.7157784400000000 O
   0.6665506500000000    0.3407733700000000    0.2120123700000000 O
   0.6780126000000000    0.3373825100000000    0.7136667600000000 O
   0.6569784200000000    0.8293080200000000    0.2119860800000000 O
   0.6639810400000000    0.8382409800000000    0.7143103700000000 O
   0.1769989000000000    0.3419050900000000    0.4534749900000000 O
   0.1739664600000000    0.3396820000000000    0.9567024300000000 O
   0.1807788000000000    0.8291552400000000    0.4545126800000000 O
   0.1608146300000000    0.8276884400000000    0.9550708500000000 O
   0.6651024800000001    0.3232712000000000    0.4543565300000000 O
   0.6625922600000000    0.3284099800000000    0.9547009000000000 O
   0.6744823200000000    0.8262945100000000    0.4551515700000000 O
   0.6663434600000000    0.8250903600000000    0.9539025100000000 O
   0.9819760700000000    0.9816092800000000    0.3801771700000000 O
   0.9995732600000000    0.0012867000000000    0.8809898500000000 O
   0.0018345000000000    0.5031388700000000    0.3814793300000000 O
   0.9995748200000000    0.4998488400000000    0.8814873900000000 O
   0.5059068000000000    0.0087779500000000    0.3810712400000000 O
   0.5082730700000000    0.0021589700000000    0.8789406100000000 O
   0.5034880500000000    0.4982114800000000    0.3792690000000000 O
   0.5050278700000000    0.4968932800000000    0.8820045300000000 O
