Li18 Co24 O48
1.0
   5.6225139500000001    0.0000000000000000    0.0000000000000003
  -2.8112569749999983    4.8692399138323905    0.0000000000000003
   0.0000000000000000    0.0000000000000000   27.8189128699999983
Li Co O
18 24 48
direct
   0.0084597400000000    0.5017163900000000    0.9999663700000000 Li
   0.0128475400000000    0.5060856100000000    0.4994285800000000 Li
   0.4960828700000000    0.4895573600000000    0.0009476000000000 Li
   0.4914202100000000    0.5020642199999999    0.5001533000000000 Li
   0.3351746600000000    0.1644336800000000    0.1695561100000000 Li
   0.3285670900000000    0.1672534900000000    0.6677776800000000 Li
   0.3300404000000000    0.6599918200000000    0.1651584000000000 Li
   0.3446858500000000    0.6889582400000001    0.6684797099999999 Li
   0.8300427300000000    0.1639860700000000    0.1673913800000000 Li
   0.8283453700000000    0.1669119500000000    0.6673065200000000 Li
   0.8298106200000001    0.6596147500000000    0.1692528500000000 Li
   0.8333945600000000    0.6837797600000000    0.6664388400000000 Li
   0.1690302400000000    0.3353595900000000    0.8327104700000000 Li
   0.1653212800000000    0.8252850400000000    0.3326039500000000 Li
   0.1626389100000000    0.8198411300000000    0.8337508400000000 Li
   0.6666666666666666    0.3348094600000000    0.8345845400000000 Li
   0.6807576000000000    0.8422415900000000    0.3332387000000000 Li
   0.6598391200000000    0.8377548300000000    0.8334271700000000 Li
   0.1551437000000000    0.3308563800000000    0.0823988400000000 Co
   0.1434103500000000    0.3233995500000000    0.5835843100000000 Co
   0.1787569500000000    0.8452892100000000    0.0850465700000000 Co
   0.1779262700000000    0.8454418500000001    0.5822622100000000 Co
   0.6684107800000000    0.3233489400000000    0.0838316400000000 Co
   0.6754649400000000    0.3479358800000000    0.5836816400000000 Co
   0.6687425100000000    0.8205557500000000    0.0811609300000000 Co
   0.6527907600000000    0.8366743000000000    0.5808698799999999 Co
   0.5019810400000000    0.5012976300000000    0.2495056300000000 Co
   0.4969628600000000    0.4939044600000000    0.7497960200000000 Co
   0.4906305600000000    0.9960006100000000    0.2500916600000000 Co
   0.4972241000000000    0.9973624200000000    0.7489395700000000 Co
   0.0051162800000000    0.5049377700000000    0.2489829200000000 Co
   0.0069778700000001    0.4931735000000000    0.7491169300000000 Co
   0.0037034200000000    0.0039720600000000    0.2526655100000000 Co
   0.0173856500000000    0.9983495999999999    0.7482875200000000 Co
   0.3197599300000000    0.1668512200000000    0.4170675500000000 Co
   0.3293971900000000    0.1754864700000000    0.9168237200000000 Co
   0.3357245600000000    0.6529915600000000    0.4174321400000000 Co
   0.3300033100000000    0.6577709200000000    0.9160009400000000 Co
   0.8294553300000000    0.1689444200000000    0.4168408600000000 Co
   0.8271016600000000    0.1600833800000000    0.9165104200000000 Co
   0.8481955300000000    0.6723551200000000    0.4183980600000000 Co
   0.8367371700000000    0.6664531100000000    0.9172938400000000 Co
   0.9986721300000000    0.0005147300000000    0.1184465600000000 O
   0.0123748100000000    0.0122062000000000    0.6190989099999999 O
   0.0068150500000000    0.4897292700000000    0.1186744100000000 O
   0.9978585200000000    0.4875878200000000    0.6215910800000000 O
   0.5026246300000000    0.9872884900000000    0.1223582600000000 O
   0.5030430700000000    0.0103511400000000    0.6205880400000000 O
   0.5006432500000000    0.5005949400000000    0.1204359400000000 O
   0.4998721500000000    0.4898022000000000    0.6201503400000000 O
   0.3292715100000000    0.1743415700000000    0.0462355700000000 O
   0.3240392100000000    0.1643692400000000    0.5453868900000000 O
   0.3382562900000000    0.6682317200000000    0.0462182200000000 O
   0.3347854000000000    0.6607161200000000    0.5465529300000000 O
   0.8236016400000000    0.1498975100000000    0.0449347000000000 O
   0.8313963200000000    0.1659004500000000    0.5456193100000000 O
   0.8313869500000000    0.6734691500000000    0.0449996000000000 O
   0.8184828500000000    0.6653120800000000    0.5469820100000000 O
   0.3203891100000000    0.1567756000000000    0.2863222300000000 O
   0.3363381400000000    0.1706509700000000    0.7862868200000001 O
   0.3198892500000000    0.6624840800000000    0.2896742400000000 O
   0.3374145300000000    0.6688466300000000    0.7862734300000001 O
   0.8245492600000000    0.1656743900000000    0.2863701100000000 O
   0.8276682200000000    0.1615897500000000    0.7871815400000000 O
   0.8326691100000000    0.6713838800000000    0.2867574000000000 O
   0.8366269200000001    0.6761836000000000    0.7881699700000000 O
   0.1738182500000000    0.3333800400000000    0.2140143400000000 O
   0.1682983900000000    0.3295202500000000    0.7142562300000000 O
   0.1778488700000000    0.8343365500000000    0.2136585300000000 O
   0.1656504400000000    0.8248787000000000    0.7152767100000000 O
   0.6608229600000000    0.3325060500000000    0.2132778400000000 O
   0.6788710900000000    0.3431033000000000    0.7132441500000000 O
   0.6692744100000000    0.8453548400000001    0.2163191400000000 O
   0.6723130600000000    0.8277436200000000    0.7094741500000000 O
   0.1657901600000000    0.3453876900000000    0.4538523500000000 O
   0.1507070900000000    0.3244920300000000    0.9562736900000000 O
   0.1750969400000000    0.8609525200000000    0.4531316700000000 O
   0.1611105300000000    0.8282686000000000    0.9542885300000000 O
   0.6996696100000001    0.3535190700000000    0.4545143200000000 O
   0.6685977500000000    0.3391613800000000    0.9526472100000000 O
   0.6725020700000000    0.8298322100000000    0.4531820700000000 O
   0.6501499500000000    0.8368130400000000    0.9537331400000000 O
   0.9817742400000000    0.0007182000000000    0.3794438600000000 O
   0.9938289500000000    0.0033126200000000    0.8783695000000000 O
   0.0001196200000000    0.5043710200000000    0.3787073800000000 O
   0.0000690500000000    0.4955295600000000    0.8803314400000000 O
   0.4985006900000000    0.0152758900000000    0.3816882500000000 O
   0.5010118300000000    0.0141275200000000    0.8782637700000000 O
   0.4955345700000000    0.5004031400000000    0.3788003700000000 O
   0.5139696900000000    0.5109111700000000    0.8799822000000000 O
