Li24 Co24 O48
1.0
   5.6225139500000001    0.0000000000000000    0.0000000000000003
  -2.8112569749999983    4.8692399138323905    0.0000000000000003
   0.0000000000000000    0.0000000000000000   27.8189128699999983
Li Co O
24 24 48
direct
   0.0017198100000000    0.0134417600000000    0.9976767100000000 Li
   0.0015267600000000    0.9985517600000000    0.4979689200000000 Li
   0.0107528100000000    0.5068346600000000    0.9991892100000000 Li
   0.9978247600000000    0.4941919700000000    0.5000098100000000 Li
   0.4923802000000000    0.9996700100000000    0.0042948700000000 Li
   0.4962186400000000    0.9972146300000000    0.4982208400000000 Li
   0.5115233300000001    0.5003564400000000    0.9987453300000000 Li
   0.4964899200000000    0.5040719400000000    0.4977415100000000 Li
   0.3370135600000000    0.1711725800000000    0.1625508900000000 Li
   0.3291291200000000    0.1740450000000000    0.6664166200000000 Li
   0.3430672500000000    0.6756104200000000    0.1654129200000000 Li
   0.3433366300000000    0.6844838100000000    0.6674673800000001 Li
   0.8302867200000000    0.1811392900000000    0.1669473100000000 Li
   0.8230685700000000    0.1468464600000000    0.6658890000000000 Li
   0.8330206000000000    0.6631096600000000    0.1666518000000000 Li
   0.8280286500000000    0.6641183000000001    0.6672055099999999 Li
   0.1525394800000000    0.3217195500000000    0.3336987400000000 Li
   0.1667071700000000    0.3439060600000000    0.8324507400000000 Li
   0.1694069800000000    0.8404175000000000    0.3338801000000000 Li
   0.1659980700000000    0.8434388000000000    0.8332278900000000 Li
   0.6699294800000000    0.3122153100000000    0.3346132000000000 Li
   0.6714021900000000    0.3312049000000000    0.8291047200000000 Li
   0.6511087200000000    0.8307496400000000    0.3327415600000000 Li
   0.6696234400000000    0.8284980800000000    0.8352741100000000 Li
   0.1609089500000000    0.3366569700000000    0.0851262800000000 Co
   0.1734447600000000    0.3324355100000000    0.5822045600000000 Co
   0.1590317100000000    0.8313686100000000    0.0845435000000000 Co
   0.1636212500000000    0.8367832300000000    0.5837243700000000 Co
   0.6731384200000000    0.3396304700000000    0.0864344600000000 Co
   0.6752832000000000    0.3301848200000000    0.5806550200000000 Co
   0.6872833900000000    0.8260175300000000    0.0811748100000000 Co
   0.6569773700000000    0.8270439500000000    0.5833920400000000 Co
   0.4999306700000000    0.4996741100000000    0.2497673200000000 Co
   0.5050223400000000    0.4999639200000000    0.7518202899999999 Co
   0.4950754900000000    0.0004915200000000    0.2487604500000000 Co
   0.4956367900000000    0.0028899200000001    0.7477787900000000 Co
   0.0045882900000001    0.4901997200000000    0.2502262300000000 Co
   0.0022261600000000    0.5041569700000000    0.7489773199999999 Co
   0.9984514100000000    0.0089521700000000    0.2492512400000000 Co
   0.0152702700000000    0.0049372100000000    0.7462472600000000 Co
   0.3354661700000000    0.1850167900000000    0.4149249100000000 Co
   0.3344823100000000    0.1554155600000000    0.9171884200000000 Co
   0.3455437100000000    0.6699285500000000    0.4182045600000000 Co
   0.3363641000000000    0.6688585700000000    0.9163496700000000 Co
   0.8052896200000000    0.1483826500000000    0.4163117800000000 Co
   0.8169483100000000    0.1469587700000000    0.9167802900000001 Co
   0.8346881800000000    0.6753704200000000    0.4177452600000000 Co
   0.8415806900000000    0.6673602500000000    0.9167685900000000 Co
   0.0108654200000000    0.0099385200000000    0.1206267000000000 O
   0.0005547400000000    0.0127021400000000    0.6216682300000000 O
   0.9958182600000000    0.4937231500000000    0.1208286900000000 O
   0.0037863500000000    0.5108523800000000    0.6179490100000000 O
   0.5032873100000000    0.0064569200000000    0.1178355500000000 O
   0.5001722500000000    0.9988449500000000    0.6192998800000000 O
   0.4952832000000000    0.5015536000000000    0.1194944300000000 O
   0.5004257000000000    0.5169125200000000    0.6179833700000000 O
   0.3207454300000000    0.1491671600000000    0.0440593400000000 O
   0.3307305300000000    0.1639802400000000    0.5486074900000000 O
   0.3461661200000000    0.6770876600000000    0.0458260300000000 O
   0.3336079900000000    0.6732210600000000    0.5445084400000000 O
   0.8225755100000000    0.1676905400000000    0.0467137900000000 O
   0.8281541700000000    0.1645679800000000    0.5485479100000000 O
   0.8292621300000000    0.6741868600000001    0.0468988000000000 O
   0.8307532500000000    0.6681715400000000    0.5466667500000000 O
   0.3327221600000000    0.1741574900000000    0.2852014900000000 O
   0.3321889500000000    0.1728134700000000    0.7862965400000000 O
   0.3361352300000000    0.6714449300000001    0.2861357800000000 O
   0.3384281900000000    0.6743280300000000    0.7890038700000001 O
   0.8395274400000000    0.1703852300000000    0.2872106600000000 O
   0.8263425300000000    0.1510711400000000    0.7879588199999999 O
   0.8248482499999999    0.6616885500000000    0.2854112900000000 O
   0.8249284600000000    0.6646331599999999    0.7863975800000000 O
   0.1697108100000000    0.3365375900000000    0.2146145600000000 O
   0.1758447300000000    0.3430531800000000    0.7100506100000000 O
   0.1653527500000000    0.8341142700000000    0.2134122000000000 O
   0.1683964600000000    0.8455615700000000    0.7138274500000000 O
   0.6582351100000000    0.3206884300000000    0.2141192300000000 O
   0.6685029900000000    0.3384205900000000    0.7138649200000000 O
   0.6564123300000000    0.8376406700000000    0.2117670400000000 O
   0.6596073600000000    0.8286778100000000    0.7143528600000000 O
   0.1614703500000000    0.3338007200000000    0.4537581200000000 O
   0.1767023200000000    0.3423207900000000    0.9524387800000000 O
   0.1641331700000000    0.8349704700000000    0.4530873300000000 O
   0.1711448100000000    0.8377780000000000    0.9547772800000000 O
   0.6533595300000000    0.3328503400000000    0.4534051200000000 O
   0.6704404800000000    0.3310450100000000    0.9531544800000000 O
   0.6748196600000000    0.8395058700000000    0.4532777400000000 O
   0.6640684700000000    0.8301986700000000    0.9548868300000000 O
   0.0083342200000000    0.0137421600000000    0.3810007000000000 O
   0.9903694100000000    0.9856112100000000    0.8811085000000000 O
   0.9827046699999999    0.4826438900000000    0.3801462500000000 O
   0.0109192900000000    0.5152929500000000    0.8784618900000000 O
   0.4932353700000000    0.9903592400000000    0.3811387400000000 O
   0.5030459400000000    0.0100940800000000    0.8798146000000000 O
   0.4890249900000000    0.5027180999999999    0.3794557100000000 O
   0.5014869500000000    0.5066544500000000    0.8775991800000000 O
