Li23 Co24 O48
1.0
   5.6225139500000001    0.0000000000000000    0.0000000000000003
  -2.8112569749999983    4.8692399138323905    0.0000000000000003
   0.0000000000000000    0.0000000000000000   27.8189128699999983
Li Co O
23 24 48
direct
   0.9986859300000001    0.9955904100000000    0.5004340900000001 Li
   0.0019980400000000    0.5067554500000000    0.0000734500000000 Li
   0.0108660700000000    0.5078001000000000    0.4992748600000000 Li
   0.5106201200000000    0.0095931000000000    0.9996781600000000 Li
   0.5159613100000000    0.0064843900000000    0.5015591800000000 Li
   0.5080566100000000    0.5101732500000000    0.0001863000000000 Li
   0.5003256900000000    0.4992094900000000    0.4991287100000000 Li
   0.3410409500000000    0.1693236700000000    0.1664335900000000 Li
   0.3286671500000000    0.1696500800000000    0.6671937000000000 Li
   0.3420292800000000    0.6740330600000000    0.1674765300000000 Li
   0.3339129500000000    0.6661121300000000    0.6652666000000000 Li
   0.8392696400000000    0.1684957000000000    0.1692448500000000 Li
   0.8399141900000000    0.1680061200000000    0.6701634900000000 Li
   0.8361890600000000    0.6705140300000000    0.1652558700000000 Li
   0.8215503700000000    0.6563586200000000    0.6638311400000000 Li
   0.1795641000000000    0.3400078500000000    0.3361435000000000 Li
   0.1596271100000000    0.3487293200000000    0.8314336800000000 Li
   0.1677838900000000    0.8315481200000000    0.3324242500000000 Li
   0.1679073200000000    0.8388051800000000    0.8329456000000000 Li
   0.6619925600000000    0.3414259500000000    0.3343081800000000 Li
   0.6733188300000000    0.3440459100000000    0.8346630300000000 Li
   0.6643093500000000    0.8411202100000000    0.3339852200000000 Li
   0.6514091900000000    0.8206064300000000    0.8317387600000000 Li
   0.1601445300000000    0.3238568300000000    0.0862379900000000 Co
   0.1578765200000000    0.3370379000000000    0.5827032400000000 Co
   0.1538543600000000    0.8351663400000000    0.0803583200000000 Co
   0.1533381600000000    0.8112230499999999    0.5838680200000000 Co
   0.6637944600000000    0.3285059200000000    0.0826259700000000 Co
   0.6637845700000000    0.3278559500000000    0.5842813500000000 Co
   0.6629404000000000    0.8396108799999999    0.0843222100000000 Co
   0.6575929700000001    0.8237983600000000    0.5850730900000000 Co
   0.4896277300000000    0.5008243500000000    0.2521327100000000 Co
   0.4940140900000000    0.4960740100000000    0.7498023800000000 Co
   0.4898150800000000    0.9921625600000000    0.2500960500000000 Co
   0.4923154800000000    0.0047918499999999    0.7499830300000000 Co
   0.9967289600000000    0.4966769100000000    0.2523318200000000 Co
   0.0048309400000000    0.5141352300000001    0.7484574700000000 Co
   0.0018196700000000    0.9909700900000000    0.2509491400000000 Co
   0.9898598199999999    0.9999327600000000    0.7497979299999999 Co
   0.3266091100000000    0.1517879000000000    0.4173163700000000 Co
   0.3230518200000000    0.1599782100000000    0.9163109800000000 Co
   0.3260752300000000    0.6582720399999999    0.4184432800000000 Co
   0.3325237600000000    0.6611350300000000    0.9179727900000000 Co
   0.8374815400000000    0.1712562700000000    0.4182312200000000 Co
   0.8313122200000000    0.1732711600000000    0.9167235000000000 Co
   0.8339692500000000    0.6628187700000000    0.4169980300000000 Co
   0.8309886800000000    0.6523456100000000    0.9143840700000000 Co
   0.9981576400000000    0.0042260700000000    0.1205980200000000 O
   0.0021330800000000    0.9995592500000000    0.6199714000000000 O
   0.9963486499999999    0.4927805600000000    0.1227269400000000 O
   0.9949261300000000    0.5000745599999999    0.6233593900000000 O
   0.5137145800000000    0.0066181000000000    0.1186891300000000 O
   0.5075749300000000    0.9974366700000000    0.6210230300000000 O
   0.5071779600000000    0.5012515100000000    0.1203625200000000 O
   0.4998563300000000    0.4967061600000000    0.6200986700000000 O
   0.3268515400000000    0.1624241000000000    0.0490384600000000 O
   0.3411879700000000    0.1593263000000000    0.5482840400000000 O
   0.3382984100000000    0.6640399500000000    0.0468105100000000 O
   0.3385606800000000    0.6602559500000000    0.5462338600000000 O
   0.8408979100000000    0.1627933800000000    0.0446288700000000 O
   0.8280554200000000    0.1604075800000000    0.5446879500000000 O
   0.8320926300000000    0.6645604800000000    0.0465146500000000 O
   0.8390443100000000    0.6736369500000000    0.5452755100000000 O
   0.3305008800000000    0.1682687100000000    0.2855665700000000 O
   0.3267497100000000    0.1547705600000000    0.7889734400000000 O
   0.3400376800000000    0.6683529400000000    0.2858836000000000 O
   0.3213226100000000    0.6595971100000000    0.7851162699999999 O
   0.8457667600000000    0.1726899200000000    0.2865909400000000 O
   0.8373849600000000    0.1770881000000000    0.7866379999999999 O
   0.8369645999999999    0.6658868999999999    0.2854580800000000 O
   0.8352885400000000    0.6663027100000000    0.7852007000000000 O
   0.1845194500000000    0.3423870100000000    0.2126802200000000 O
   0.1711699300000000    0.3206098600000000    0.7123998400000000 O
   0.1632044400000000    0.8338426700000000    0.2138778300000000 O
   0.1736946200000000    0.8478752200000000    0.7127890700000000 O
   0.6592588600000000    0.3325536000000000    0.2114275500000000 O
   0.6777401700000000    0.3369939100000000    0.7134849000000000 O
   0.6752338400000000    0.8412592800000001    0.2142560800000000 O
   0.6741282900000000    0.8388057799999999    0.7170368000000000 O
   0.1668514100000000    0.3315402900000000    0.4544153300000000 O
   0.1674649700000000    0.3411506700000000    0.9545985100000000 O
   0.1640028800000000    0.8379045400000000    0.4560884400000000 O
   0.1809976900000000    0.8411141800000000    0.9531011300000000 O
   0.6699041900000000    0.3366160500000000    0.4528281500000000 O
   0.6598745300000000    0.3295100800000000    0.9537533100000000 O
   0.6665673500000000    0.8491943500000000    0.4539046200000000 O
   0.6590859200000000    0.8503325000000000    0.9540998500000000 O
   0.0021376000000000    0.9915944900000000    0.3811482300000000 O
   0.9991034300000000    0.0066486200000000    0.8778001000000000 O
   0.9931747000000000    0.4931613200000000    0.3806833900000000 O
   0.0111683400000000    0.4970613700000000    0.8796483000000000 O
   0.5052422400000000    0.0067638300000000    0.3802098700000000 O
   0.4930784500000000    0.0006189900000000    0.8824511100000000 O
   0.5072937900000000    0.5094442100000000    0.3797375500000000 O
   0.4997952700000000    0.5083761500000000    0.8814507900000000 O
