Li21 Co24 O48
1.0
   5.6225139500000001    0.0000000000000000    0.0000000000000003
  -2.8112569749999983    4.8692399138323905    0.0000000000000003
   0.0000000000000000    0.0000000000000000   27.8189128699999983
Li Co O
21 24 48
direct
   0.9985021900000000    0.0049328200000000    0.9999316400000000 Li
   0.9998984500000000    0.0050376700000000    0.5010371000000000 Li
   0.0039126400000000    0.4943741000000000    0.9987771500000000 Li
   0.9992796400000000    0.4986767900000000    0.4996241100000000 Li
   0.5091421000000000    0.0043849900000000    0.0009450500000000 Li
   0.5076921100000000    0.0071631400000000    0.5002499300000000 Li
   0.5168850500000000    0.5131090000000000    0.0017884800000000 Li
   0.5176683900000000    0.5022330000000000    0.5007598200000000 Li
   0.3477097400000000    0.1779457800000000    0.1692259600000000 Li
   0.3324673500000000    0.1588641900000000    0.6673834100000000 Li
   0.3428973000000000    0.6696776200000000    0.1686031600000000 Li
   0.3364940300000000    0.6677948800000000    0.6658352100000000 Li
   0.8309588800000000    0.1685719900000000    0.1661814600000000 Li
   0.8377570400000000    0.1683894000000000    0.6666666666666666 Li
   0.8481896200000000    0.6642103200000000    0.1673766400000000 Li
   0.1470257000000000    0.3375706000000000    0.3347657800000000 Li
   0.1588651900000000    0.3250647700000000    0.8319270900000000 Li
   0.1697987700000000    0.8332970800000000    0.3350759800000000 Li
   0.1700826200000000    0.8311338300000000    0.8346837400000000 Li
   0.6554861900000000    0.3321635600000000    0.8340214800000000 Li
   0.6725236900000000    0.8334985100000000    0.8328745500000000 Li
   0.1541029400000000    0.3235794900000000    0.0830625000000000 Co
   0.1686228400000000    0.3291172900000000    0.5815652700000000 Co
   0.1731280600000000    0.8417001300000000    0.0816095900000000 Co
   0.1683463900000000    0.8303934800000000    0.5836873700000000 Co
   0.6697722600000000    0.3395167200000000    0.0818067300000000 Co
   0.6773558000000000    0.3350852400000000    0.5838835300000000 Co
   0.6695855800000000    0.8282934700000000    0.0822081100000000 Co
   0.6705026300000000    0.8333036600000000    0.5846829200000000 Co
   0.5067578800000000    0.5102238600000000    0.2496878000000000 Co
   0.5001295900000000    0.4941133300000000    0.7512736800000001 Co
   0.5018483400000000    0.0012304700000001    0.2487275700000000 Co
   0.5017767200000000    0.9967858400000000    0.7484506500000000 Co
   0.0062595900000000    0.5117213200000000    0.2498172100000000 Co
   0.0067192199999999    0.4835411400000000    0.7484138000000000 Co
   0.0110384900000000    0.0080224000000000    0.2518297800000000 Co
   0.0087898100000000    0.9966780100000000    0.7513710100000000 Co
   0.3367090300000000    0.1602430100000000    0.4209330100000000 Co
   0.3432412600000000    0.1756289100000000    0.9155919400000000 Co
   0.3235649400000000    0.6591079600000000    0.4163792800000000 Co
   0.3346625900000000    0.6530648000000000    0.9149998600000000 Co
   0.8311932400000001    0.1690439300000000    0.4165600200000000 Co
   0.8298430300000000    0.1549788800000000    0.9194479100000000 Co
   0.8261501800000000    0.6548580400000000    0.4166038200000000 Co
   0.8308743200000001    0.6600407200000000    0.9176430000000000 Co
   0.9961712500000000    0.9990097700000000    0.1204676800000000 O
   0.9876060900000000    0.9855184600000000    0.6198124200000000 O
   0.9962557200000000    0.4949940400000000    0.1192903300000000 O
   0.9967814000000000    0.4887928800000000    0.6189952600000000 O
   0.5158555700000000    0.0136041300000000    0.1200978700000000 O
   0.5034390000000000    0.9975848000000000    0.6178291100000000 O
   0.5065519900000000    0.4910067300000000    0.1208238100000000 O
   0.5026174000000000    0.5129855200000000    0.6208808000000000 O
   0.3395237900000000    0.1748634500000000    0.0466291400000000 O
   0.3359979600000000    0.1667582200000000    0.5441391900000000 O
   0.3388761100000000    0.6767997900000000    0.0461161100000000 O
   0.3107018800000000    0.6516096300000001    0.5461286700000000 O
   0.8389002200000000    0.1697554500000000    0.0475166800000000 O
   0.8251133500000000    0.1627263600000000    0.5471795400000000 O
   0.8363203500000000    0.6628674900000000    0.0468771900000000 O
   0.8382617999999999    0.6686043800000000    0.5450622300000000 O
   0.3335826200000000    0.1673313700000000    0.2855266900000000 O
   0.3265727100000000    0.1647962100000000    0.7867696700000000 O
   0.3325026700000000    0.6594905100000000    0.2847032600000000 O
   0.3411704900000000    0.6662643700000001    0.7844972200000000 O
   0.8203302300000000    0.1555036200000000    0.2834712700000000 O
   0.8342581000000000    0.1719184000000000    0.7862113300000000 O
   0.8280888600000000    0.6747047200000000    0.2862387100000000 O
   0.8297166200000000    0.6712271000000000    0.7824006200000000 O
   0.1592860700000000    0.3306367500000000    0.2155557500000000 O
   0.1801540300000000    0.3374063300000000    0.7154165099999999 O
   0.1671482300000000    0.8432054800000000    0.2147272400000000 O
   0.1668335900000000    0.8444498200000000    0.7122519200000000 O
   0.6612041000000000    0.3276526000000000    0.2146109300000000 O
   0.6757740600000000    0.3380784600000000    0.7165644700000000 O
   0.6465276000000000    0.8109483000000000    0.2154545100000000 O
   0.6550351300000000    0.8165316200000000    0.7144054800000000 O
   0.1731638800000000    0.3397393700000000    0.4527981400000000 O
   0.1621119900000000    0.3280868500000000    0.9530714000000000 O
   0.1726537100000000    0.8459300900000000    0.4518205500000000 O
   0.1738112800000000    0.8427012500000000    0.9550299000000000 O
   0.6692320000000000    0.3315568100000000    0.4506355100000000 O
   0.6708574000000000    0.3286070900000000    0.9514762000000000 O
   0.6658817900000000    0.8424390200000000    0.4545014800000000 O
   0.6765509000000000    0.8432044300000000    0.9533335700000000 O
   0.0002826900000000    0.0130413000000000    0.3777252800000000 O
   0.0069877000000000    0.0069011100000000    0.8808672400000001 O
   0.0097656700000000    0.5122692500000000    0.3808651500000000 O
   0.9838819900000000    0.4799091100000000    0.8784004300000000 O
   0.5016727900000000    0.0038651000000000    0.3790785900000000 O
   0.5116354300000000    0.0051873300000000    0.8838296500000000 O
   0.4823321300000000    0.4957621100000000    0.3800499300000000 O
   0.4895521600000000    0.4892576100000000    0.8812348200000000 O
