Li24 Co27 O54
1.0
  14.1209132099999994   -4.2168848700000003   -0.0134986200000000
  14.1209132099999994    4.2168848700000003   -0.0134986200000000
  12.8685137100000002    0.0000000000000000    7.1821868699999998
Li Co O
24 27 54
direct
  -0.0041026926762294    0.0042768951998616    0.0019806475591276 Li
   0.0030664175728337    0.0011040274958836    0.3323159708119365 Li
  -0.0053033200428076    0.0071617134469447    0.6692628603085116 Li
  -0.0047046320131903    0.3355180247102216    0.0023848194031113 Li
   0.0027965008268776    0.3240725156805563    0.3396539915765402 Li
   0.0044834277200375    0.3333169392866962    0.6645122486435378 Li
   0.0045204310080403    0.6635274934893682   -0.0080382635269714 Li
  -0.0006994552799071    0.6697793020025247    0.3288273749646632 Li
  -0.0085014500547589    0.6752040283653059    0.6634062462603898 Li
   0.3314213545549349    0.0106361723970376   -0.0097076713630403 Li
   0.3364642908728079   -0.0032299101507043    0.6655474257643690 Li
   0.3331063280886393    0.3246092288286677    0.0071147594720178 Li
   0.3207160758360572    0.3436007637419636    0.3374627173249052 Li
   0.3243713056682550    0.6740140399140392    0.0022428615991794 Li
   0.3276705776106890    0.6649963715718510    0.3450234421902027 Li
   0.3313613565146724    0.6623622698105212    0.6704787973860473 Li
   0.6676584239458624    1.0025280362323776   -0.0021523280108498 Li
   0.6614918425965528    0.0095605080670630    0.3314380246024285 Li
   0.6595011590561348    0.9972192774010931    0.6718222027568890 Li
   0.6606155492692773    0.3301128884168888    0.3429987141406672 Li
   0.6762594284012795    0.3318942245198553    0.6614192323391862 Li
   0.6635937599927282    0.6730422396666368   -0.0033415473315868 Li
   0.6620055661678139    0.6791107579384917    0.3225864932951482 Li
   0.6678105047676633    0.6641161107168241    0.6694566620563146 Li
   0.1600203055231564    0.1661755342070499    0.1744374097406920 Co
   0.1591726604145773    0.1714827273060093    0.5043757203764989 Co
   0.1648034444932617    0.1718137048697330    0.8324203811527681 Co
   0.1685450122430558    0.4925738936535905    0.1693433836433202 Co
   0.1691336221186227    0.5008710795630753    0.4972164134166024 Co
   0.1674816863077296    0.5010908353912905    0.8325373282279173 Co
   0.1711930473969961    0.8305496261207700    0.1723155323890241 Co
   0.1730074349691409    0.8337616290602742    0.4935404295198842 Co
   0.1628216505620813    0.8323459293904658    0.8446107799788244 Co
   0.5009897448644770    0.1673144273866543    0.1609394678256986 Co
   0.4968412261626564    0.1658628044849184    0.5025124827471389 Co
   0.5023250781569990    0.1632683317681553    0.8321297210347823 Co
   0.4977151131321756    0.5038706682352978    0.1675486410129121 Co
   0.4965759012971093    0.5013126641257888    0.5014447735427434 Co
   0.4964354288538877    0.4947185946031853    0.8376645772126897 Co
   0.5040820232700346    0.8287902924603986    0.1652384506997405 Co
   0.4984259418046870    0.8396626651712122    0.5035075435941625 Co
   0.5006715378111549    0.8320493818658172    0.8343274942909020 Co
   0.8303689247413998    0.1676769999071361    0.1706076101683525 Co
   0.8287367964708401    0.1670907834293767    0.4994780568305517 Co
   0.8357808474328986    0.1559951637160418    0.8385614829081626 Co
   0.8301010103225095    0.4954487649703007    0.1754795581708038 Co
   0.8244428433857695    0.5038998591769763    0.5042088551881259 Co
   0.8363283603046743    0.4972803389270836    0.8262196625445150 Co
   0.8233461143583526    0.8342535676134227    0.1724829143603355 Co
   0.8239727765179512    0.8407498818915100    0.4994445026492383 Co
   0.8355421372626818    0.8334849397321104    0.8313480446036836 Co
   0.2580059529297780    0.2478575713095370    0.2513171662733626 O
   0.2493417578692236    0.2528521266864652    0.5957318313300152 O
   0.2532450048342342    0.2571488404705461    0.9178058521153039 O
   0.2479176165448798    0.5883769481716491    0.2566682375796024 O
   0.2500431796751390    0.5878068336870009    0.5850366445243897 O
   0.2583690742322490    0.5814155384433719    0.9195567610436464 O
   0.2521483142551452    0.9210006569678783    0.2552834620424869 O
   0.2511059848177158    0.9256133179850192    0.5842047533232176 O
   0.2588000538622039    0.9218646510994348    0.9158866984492020 O
   0.5836598213209621    0.2624132884920697    0.2501963774181629 O
   0.5764489934673295    0.2622703048265265    0.5844651985722752 O
   0.5837622335589188    0.2533036340189370    0.9214836094550329 O
   0.5879304030040825    0.5816729429965425    0.2571003740588806 O
   0.5876501683022778    0.5867447103476495    0.5847340948843711 O
   0.5892634646024288    0.5895604873980511    0.9083285085725855 O
   0.5859094398794359    0.9266606682776525    0.2486162037763589 O
   0.5836837825122996    0.9243996317979455    0.5883235885250059 O
   0.5821065981184239    0.9172968133721819    0.9258327597957617 O
   0.9202325615181051    0.2520898328820819    0.2503039751083082 O
   0.9216705435409813    0.2464411922991814    0.5834865755942391 O
   0.9138498691882568    0.2585322846923666    0.9181693104457511 O
   0.9197526603795165    0.5837417153567889    0.2543782688664263 O
   0.9229463568272315    0.5765793589874488    0.5951762805007343 O
   0.9197260003014577    0.5815214723075651    0.9221202141708834 O
   0.9323717449415195    0.9211566050001093    0.2426278556843403 O
   0.9177379703509880    0.9200062832469507    0.5881254698957981 O
   0.9141819865426020    0.9129602775648598    0.9315977080577572 O
   0.0780380882744046    0.0788820723248090    0.0805576258801066 O
   0.0796796206371677    0.0680622938715515    0.4194260722735581 O
   0.0822200084424028    0.0805402010087863    0.7448018201296304 O
   0.0713492201282217    0.4240199307003056    0.0768509067255290 O
   0.0839847489738457    0.4150299374668636    0.4112425552591391 O
   0.0783820646491152    0.4200943927573537    0.7438664858256071 O
   0.0875817095882258    0.7361138529913001    0.0856661720669026 O
   0.0798894814396147    0.7464832099675683    0.4128224020197333 O
   0.0778833290638686    0.7386040444593645    0.7592519727789796 O
   0.4088059307827694    0.0939803957176431    0.0732313654645259 O
   0.4075867284119124    0.0798742292840177    0.4206771988391774 O
   0.4098534206260922    0.0756721059780682    0.7531401653862574 O
   0.4068351034550192    0.4216974508255070    0.0773362732532450 O
   0.4157895104609128    0.4049787683066720    0.4145956830496166 O
   0.4084663181507747    0.4150646271124521    0.7528805646844278 O
   0.4167787530568685    0.7481161403443529    0.0764222774285123 O
   0.4083627425160630    0.7542530114224775    0.4106662952752630 O
   0.4169991141411387    0.7384990068692348    0.7459171562601518 O
   0.7445967401168611    0.0714936220891627    0.0911431266372131 O
   0.7424746008618266    0.0852131580988921    0.4078766398064310 O
   0.7478832107139113    0.0738750764141739    0.7472464742429976 O
   0.7465248421573061    0.4127585984623553    0.0834293355131798 O
   0.7464819593799452    0.4150713728109812    0.4137481545113536 O
   0.7400974990539700    0.4175432897623924    0.7483204129251770 O
   0.7521522975555669    0.7426556243664897    0.0756397675699181 O
   0.7518446421890355    0.7436149258577507    0.4053021488753006 O
   0.7444277601213185    0.7545914319466434    0.7470122062239489 O
