Li24 Co27 O54
1.0
  14.1209132099999994   -4.2168848700000003   -0.0134986200000000
  14.1209132099999994    4.2168848700000003   -0.0134986200000000
  12.8685137100000002    0.0000000000000000    7.1821868699999998
Li Co O
24 27 54
direct
   0.0100261155570628   -0.0157988865227034    0.0050360063893741 Li
   0.0039129206714179   -0.0045569599345738    0.3344684124432474 Li
  -0.0046665571444851   -0.0007224298252649    0.6713026828803985 Li
   0.0113732462443618    0.3112712959316456    0.0088011901137625 Li
  -0.0064696028172534    0.3343124760053273    0.3404024056380447 Li
  -0.0071851368017145    0.6633302247478505    0.0074251121612132 Li
  -0.0039918505033058    0.6720326842465976    0.3358046471785882 Li
   0.3246708080091986    0.0083895547059002    0.0002664567042163 Li
   0.3289236060594098   -0.0002640205956850    0.3353759067727348 Li
   0.3393953612241763    0.0044725971041235    0.6578282020904188 Li
   0.3373117498464999    0.3298527762344096   -0.0041540360897085 Li
   0.3391234338057902    0.3294605139484592    0.3356254701997446 Li
   0.3423413076325047    0.6565817560938917   -0.0006651957051743 Li
   0.3232882118707247    0.6654579935794931    0.3431419701883171 Li
   0.3419314966620963    0.6677728565535332    0.6570574399991720 Li
   0.6682949439490651    0.9946357323521688    0.0049377945528270 Li
   0.6694882902910364   -0.0107214006940607    0.3343090680349633 Li
   0.6620744254939372    1.0022618226276605    0.6675380318563847 Li
   0.6716981951239082    0.3349795842623888   -0.0051137220696019 Li
   0.6713910112726452    0.3277280660261308    0.3360548211148792 Li
   0.6651764830658884    0.3379744472456281    0.6639192977698193 Li
   0.6638524674746474    0.6810923425481117   -0.0117600575596338 Li
   0.6747049891974221    0.6645333667118252    0.3269213282197371 Li
   0.6667286471745852    0.6635813022232020    0.6711629009902724 Li
   0.1679235503432214    0.1705055900603677    0.1634425574594535 Co
   0.1653728287725792    0.1666916764490843    0.5001266791407818 Co
   0.1740741820580254    0.1613587145196593    0.8332216224689668 Co
   0.1693492938162248    0.4948372692457979    0.1709255283151366 Co
   0.1803321277071251    0.4991320760213200    0.4919638173735580 Co
   0.1695158608596089    0.4977658948817688    0.8327936124977918 Co
   0.1620969861307890    0.8277624240184038    0.1721591128173334 Co
   0.1604650543172174    0.8246958119616320    0.5110702388949289 Co
   0.1590239640265834    0.8391860870551713    0.8387643139951362 Co
   0.5009744480709708    0.1619963028424227    0.1694721187571682 Co
   0.4904318248559422    0.1714238287531377    0.5056571325996156 Co
   0.5026930373017231    0.1645755980332415    0.8295672494155482 Co
   0.4974828336837658    0.5008970684425081    0.1687247139964520 Co
   0.5092714262410321    0.4913620611748822    0.4952171974912593 Co
   0.4913029745964950    0.4977674914199736    0.8385566738460557 Co
   0.4974371705151552    0.8320350581355760    0.1718976864908517 Co
   0.4939362240223902    0.8482399369955581    0.4893948816467537 Co
   0.5001895192258003    0.8369529995772116    0.8320575865829640 Co
   0.8290210563465782    0.1652632417760135    0.1738968835911414 Co
   0.8360865859898892    0.1668743364046635    0.4963368680824293 Co
   0.8361319887426157    0.1641204117317265    0.8329257642009290 Co
   0.8269673017274600    0.5066515614010367    0.1645577715377066 Co
   0.8331370795092916    0.4998549995960438    0.5022090934223381 Co
   0.8311468121042564    0.4946826771214364    0.8394648121080345 Co
   0.8305413970792475    0.8381346488440531    0.1660448545541925 Co
   0.8290106104264309    0.8402285439616520    0.5033807763500441 Co
   0.8372303478624284    0.8367658633804133    0.8257004196922991 Co
   0.2544327598671964    0.2445890360697490    0.2644016274419612 O
   0.2387863219246957    0.2633730741352299    0.5867516632390211 O
   0.2553946556439399    0.2537641798931018    0.9184933821970435 O
   0.2461291633340928    0.5931355574745857    0.2558429997242980 O
   0.2635257312709471    0.5828988874067238    0.5817337608367613 O
   0.2607392192871203    0.5897066243727096    0.9109989499887015 O
   0.2448822683142002    0.9228807381882225    0.2584999617206274 O
   0.2519189574576332    0.9213825585438742    0.5864838038663237 O
   0.2647505549656301    0.9026484972592888    0.9264345541285961 O
   0.5717217715604201    0.2663080672061925    0.2565025683517915 O
   0.5822481686290755    0.2522219048814479    0.5883054906645019 O
   0.5956938567323176    0.2522832991240336    0.9094251887523769 O
   0.5836497739706912    0.5837859074911899    0.2560800116395223 O
   0.5788972849691023    0.5902904900066106    0.5904086431556212 O
   0.5838922952675407    0.5887864497521356    0.9278802936801364 O
   0.5818044597537996    0.9230918616277372    0.2539504211351373 O
   0.5896503311455281    0.9232055359799622    0.5831635040022457 O
   0.5952574983184150    0.9126718351458664    0.9190152454900232 O
   0.9266565731481160    0.2465787080158119    0.2564488034181099 O
   0.9294327486186167    0.2462119681970904    0.5826663044506364 O
   0.9215141155630211    0.2573050602584979    0.9181783648356042 O
   0.9276259086600258    0.5827204095215494    0.2466048494044896 O
   0.9178100955142349    0.5804791708064202    0.5929856301997011 O
   0.9214283873619940    0.5891857875444437    0.9195809506771142 O
   0.9271257435287361    0.9249150110638953    0.2403847950455839 O
   0.9123702859043994    0.9246926271560698    0.5886746891558308 O
   0.9160892477964199    0.9169780363402554    0.9184280211737841 O
   0.0771830628195499    0.0795692555095927    0.0832613791427590 O
   0.0751861127177695    0.0871002863974172    0.4132089488269711 O
   0.0787245844550997    0.0837178264439006    0.7494940290070568 O
   0.0819589380516251    0.4138463920120769    0.0767659712193538 O
   0.0783483945104474    0.4108038049502266    0.4216648426295725 O
   0.0844847169618787    0.4146501256026923    0.7398957123329566 O
   0.0894875991063028    0.7510879663566733    0.0629711735100011 O
   0.0827298268786595    0.7432011533049723    0.4125453961424753 O
   0.0803091638860039    0.7509404495479175    0.7441839040131343 O
   0.4173164741656000    0.0868379399288648    0.0748443672746654 O
   0.4144716761130674    0.0720830926133042    0.4192672403078658 O
   0.4247787304015947    0.0698489074249224    0.7497474168725333 O
   0.4100603558752645    0.4167093260137893    0.0837855263091038 O
   0.4068482435927815    0.4096748265138995    0.4215466018425568 O
   0.4114481864314720    0.4133742126447167    0.7451947141285989 O
   0.4138037656051077    0.7449717068011850    0.0814128337301817 O
   0.4031848119629774    0.7581025043274651    0.4162706717168681 O
   0.4221283304605609    0.7431976694100204    0.7378876504189594 O
   0.7448296390141956    0.0815957968230916    0.0755443464011387 O
   0.7446481054489624    0.0949251539421824    0.4025472155454151 O
   0.7552130932139665    0.0836782192269260    0.7348377549067707 O
   0.7587909674400058    0.3966193809299626    0.0825065947222414 O
   0.7435927179362507    0.4301499856985329    0.4045212113939147 O
   0.7466367202086598    0.4074141462143533    0.7523588827625362 O
   0.7349536917033507    0.7520657282410985    0.0868100531649659 O
   0.7512490788129487    0.7535237727071320    0.4005079339002635 O
   0.7423104351240553    0.7498704772957552    0.7485776233767844 O
