Li22 Co27 O54
1.0
  14.1209132099999994   -4.2168848700000003   -0.0134986200000000
  14.1209132099999994    4.2168848700000003   -0.0134986200000000
  12.8685137100000002    0.0000000000000000    7.1821868699999998
Li Co O
22 27 54
direct
  -0.0036898622553263   -0.0084805314473210    0.3481592374546126 Li
   0.0038090545801605   -0.0020647538557090    0.6652207381781310 Li
  -0.0024117239215110    0.3329096325831972    0.0011622824453860 Li
  -0.0005204775727506    0.3299871457692639    0.3392195397781396 Li
  -0.0042813689754444    0.6631883485491568    0.0046079370760027 Li
  -0.0048047681512573    0.6741215659708539    0.3309188771195145 Li
   0.0010547912640854    0.6718294629416024    0.6640903858693205 Li
   0.3244888015243363    0.0105130915230284   -0.0007807553227089 Li
   0.3343285312257107   -0.0018665385087860    0.3394171514379555 Li
   0.3376468839543487    0.0002568724915458    0.6684739943344271 Li
   0.3412037880586956    0.3280539172827146   -0.0042695097474141 Li
   0.3364458821921851    0.3272585274359102    0.6667357331000250 Li
   0.3264752556200839    0.6723744513503616    0.3295213189554414 Li
   0.3333741308170096    0.6685780564649619    0.6670431770491765 Li
   0.6675627938681051    0.9948613318751649    0.0056977614972896 Li
   0.6711354881259175    0.0018471380125124    0.3338766707219972 Li
   0.6685258266470386    1.0128398661339235    0.6503440420022065 Li
   0.6690928424436593    0.3308626682054528    0.0045772284496722 Li
   0.6581771776606917    0.3343125582058763    0.3413041797514611 Li
   0.6621488844976353    0.3323393126117656    0.6692649345469697 Li
   0.6698445733681332    0.6578706925830278    0.0059785278235665 Li
   0.6759119816064819    0.6582507646013054    0.6666214966380046 Li
   0.1607967111325758    0.1674595749038300    0.1717576651753281 Co
   0.1748518353012759    0.1570278556196829    0.5021018653925566 Co
   0.1775419152788540    0.1606533321923604    0.8284653463394033 Co
   0.1705558164142733    0.5009529264467609    0.1585231438235343 Co
   0.1651934563620374    0.5008274221107497    0.4992781740540852 Co
   0.1619156182515068    0.4978872843086970    0.8388541690499021 Co
   0.1666569585593372    0.8366926860236957    0.1650859070263947 Co
   0.1601673976168291    0.8372597549228150    0.5006880967318965 Co
   0.1749076432235689    0.8353695843822612    0.8235796428757257 Co
   0.4970132379794767    0.1711525453672786    0.1645975320137433 Co
   0.4974126452309466    0.1729726291111542    0.4948723503462845 Co
   0.5045017149604408    0.1656039417513717    0.8310403387387436 Co
   0.4965211750456867    0.5098681544168551    0.1554833919509995 Co
   0.5084799221200683    0.5019150698110699    0.4925540182149423 Co
   0.4983818090585872    0.5040426480783405    0.8288343068358265 Co
   0.4940639091983395    0.8328630518315203    0.1694595727678907 Co
   0.5073416793867780    0.8341754383031050    0.4880705503062581 Co
   0.5022609599641106    0.8360652535354165    0.8307942932992687 Co
   0.8315184011736413    0.1642794044598633    0.1663322351697323 Co
   0.8289291387189803    0.1740284469617752    0.4986469853176858 Co
   0.8256859582072589    0.1780481866630862    0.8300948509773223 Co
   0.8328449577994657    0.5022452977571810    0.1678393215420692 Co
   0.8420226309425330    0.4925136135710231    0.4963181299220986 Co
   0.8299496914438190    0.5013722118584149    0.8349961534403373 Co
   0.8361319678983050    0.8317135736677370    0.1670843486679142 Co
   0.8360411016701349    0.8374086744595804    0.4985786946951043 Co
   0.8342438004989337    0.8380779277715156    0.8229936499033564 Co
   0.2514517621349863    0.2580131219505180    0.2520619469795330 O
   0.2478479843854463    0.2511047728724420    0.5922515695659754 O
   0.2593914816042308    0.2445774599279325    0.9266122886409039 O
   0.2591670254225291    0.5731612901689045    0.2592789267200516 O
   0.2434886141453370    0.5924391967187808    0.5899567315145420 O
   0.2478101246550333    0.5848611189814554    0.9264121995728186 O
   0.2611221290920154    0.9132956539341038    0.2518012661885606 O
   0.2485307769813940    0.9188073008806663    0.5972051444260590 O
   0.2562917536939047    0.9241770528784647    0.9198972692137105 O
   0.5799134176209388    0.2611036366648086    0.2507093329379236 O
   0.5870320242758584    0.2630425687730644    0.5777522170553745 O
   0.5876733781750285    0.2475054719071523    0.9256903716238570 O
   0.5865936458652459    0.5822718333930832    0.2569072588257034 O
   0.5726288463003422    0.5922122266423683    0.5924660304787649 O
   0.5760550508263558    0.5876734692603466    0.9279068616503648 O
   0.5835870200404123    0.9269970716085749    0.2516690984688241 O
   0.5860925493881239    0.9172214397040025    0.5846294439269484 O
   0.5875138681152083    0.9175344509217025    0.9230335144131496 O
   0.9142301410787244    0.2527605225653016    0.2584718764408934 O
   0.9234966051233308    0.2446267647975916    0.5937031457472393 O
   0.9132943385597609    0.2580181047580389    0.9241976712367944 O
   0.9146984807173261    0.5802986560028055    0.2680089698013747 O
   0.9154567600378456    0.5906172913020225    0.5875244154654771 O
   0.9281681514818461    0.5844345510452642    0.9173867885192443 O
   0.9176207274213966    0.9147443810009297    0.2587934578128550 O
   0.9096531436612856    0.9203797630209107    0.5971910746266988 O
   0.9100152646567530    0.9318438170557157    0.9206450159264903 O
   0.0704313271426700    0.0849025948906897    0.0829397234981466 O
   0.0777613306068836    0.0867466583689079    0.4073602218758448 O
   0.0820006559571226    0.0693953776859343    0.7522244165854756 O
   0.0836521186845264    0.4114887434709680    0.0759477161141287 O
   0.0765623241807706    0.4132694808874069    0.4158882194585797 O
   0.0729071296957291    0.4175739738261056    0.7501558115229850 O
   0.0704754042794135    0.7572882009737711    0.0781125865211021 O
   0.0824254984272205    0.7333723046808964    0.4243467417431578 O
   0.0773056431246965    0.7416179198022250    0.7583120304800396 O
   0.4116414755661095    0.0792759551056158    0.0848457452778313 O
   0.4232093265936607    0.0800680083870029    0.4035823292783751 O
   0.4047167391812732    0.0782186903655930    0.7558175647029516 O
   0.4164036525846888    0.4130113893961820    0.0758416357948789 O
   0.4164281794626619    0.4069714670986552    0.4191476529808379 O
   0.4142091792949973    0.4059562531085471    0.7477435660860002 O
   0.4145088279428265    0.7480080568162495    0.0797747516593086 O
   0.4195218526629324    0.7473618539296458    0.4051391186341377 O
   0.4083831094043999    0.7436759645147184    0.7597677628533486 O
   0.7429468666795193    0.0748567058572685    0.0872538367041100 O
   0.7511964838563446    0.0688292538040161    0.4163719431901979 O
   0.7415330362856383    0.0805689966864295    0.7510117910338228 O
   0.7465526308459088    0.4176552887701555    0.0763392304987711 O
   0.7421854208392028    0.4175143819194911    0.4078803469570185 O
   0.7439737493307307    0.4113247024782042    0.7486283321216938 O
   0.7369770725443429    0.7510778908776620    0.0810746081329838 O
   0.7516269255701766    0.7480908043489423    0.4090669650463769 O
   0.7557391155571422    0.7449278955539593    0.7333092370494870 O
