Li22 Co27 O54
1.0
  14.1209132099999994   -4.2168848700000003   -0.0134986200000000
  14.1209132099999994    4.2168848700000003   -0.0134986200000000
  12.8685137100000002    0.0000000000000000    7.1821868699999998
Li Co O
22 27 54
direct
   0.0070863932620530    0.0050093778375400   -0.0062399905141002 Li
  -0.0042742106889183    0.0064056940647969    0.3333922588785016 Li
  -0.0030438697814644    0.3350229863905276    0.3317232039198259 Li
   0.0007749166233731    0.3360891638926385    0.6642156862669824 Li
   0.0051015119336920    0.6634628350418942   -0.0014028068567983 Li
  -0.0014047155885718    0.6650823561368120    0.3304116167994189 Li
   0.0030036586119548    0.6670012224665349    0.6636193090067314 Li
   0.3321481776230292    0.0040931478333609   -0.0051396104408408 Li
   0.3269405882146604    0.0004408107936579    0.3372211901162396 Li
   0.3364155760381216   -0.0097233571843930    0.6745564633997185 Li
   0.3350105787263846    0.3430414753626674   -0.0060848101497286 Li
   0.3362753024031541    0.3349340579374260    0.3309748231866258 Li
   0.3359460279852011    0.3228046247375626    0.6731819803445619 Li
   0.3385162639717282    0.6583238358229723    0.0030890489622827 Li
   0.3314606772880141    0.6648302916168023    0.3374819637735325 Li
   0.3365466408112112    0.6694862162390534    0.6612303782121173 Li
   0.6668842631090974   -0.0099312156383408    0.3459106157408617 Li
   0.6710437615427266    0.3320672358047599   -0.0043176866987295 Li
   0.6728898751344086    0.3362000134068409    0.3251305876831631 Li
   0.6730598221443957    0.3384202322927587    0.6637069580350122 Li
   0.6686026568991761    0.6670337100978875   -0.0029588930904263 Li
   0.6691383632091041    0.6579805098641015    0.6688956706631998 Li
   0.1749605314052020    0.1597320769171456    0.1707452081442388 Co
   0.1774772869463632    0.1523623531732348    0.5073834102050813 Co
   0.1611705953363428    0.1820499830057948    0.8237610494393454 Co
   0.1785133556237669    0.4972666196961159    0.1621341908063863 Co
   0.1612129296594082    0.5034178744282005    0.5039789054011966 Co
   0.1655389385822362    0.4997967315050565    0.8353884887938947 Co
   0.1635707682966950    0.8290663938490472    0.1757312478064653 Co
   0.1658747411519597    0.8301049521909580    0.5050144253037127 Co
   0.1710351963931506    0.8297944287553821    0.8361214678566717 Co
   0.5027976727809262    0.1658733867930562    0.1663057490508626 Co
   0.5000179619219153    0.1750532332203864    0.4942858888143292 Co
   0.5053730558757072    0.1556136628481827    0.8386478666324584 Co
   0.5116569181348283    0.4901696971657356    0.1660221953864471 Co
   0.4959883894539339    0.5074378715469428    0.4988725047380976 Co
   0.4993112375344939    0.4913337381394126    0.8395541685430786 Co
   0.5005843408246194    0.8369056070089022    0.1669159345832602 Co
   0.4947915549687677    0.8304939319873403    0.5064010100384471 Co
   0.5012192386014475    0.8277458505649399    0.8394256214494362 Co
   0.8371959060323895    0.1637205645995618    0.1661877890871656 Co
   0.8345550372092072    0.1690221747664317    0.5014464965371628 Co
   0.8322120673496237    0.1731676363595066    0.8287249363367211 Co
   0.8263516463713463    0.5052258270331746    0.1668014105804821 Co
   0.8383779568130727    0.4965421127097803    0.4953321402924613 Co
   0.8370836136748421    0.5038715090476833    0.8264031023935116 Co
   0.8333707144698617    0.8252902042294511    0.1798060238187938 Co
   0.8492461067203116    0.8265750414592599    0.4871814419688248 Co
   0.8396853912234743    0.8329188095885740    0.8302836858650952 Co
   0.2545153263278149    0.2483595422507742    0.2535113255915513 O
   0.2577676563031850    0.2488930701090416    0.5845505903955025 O
   0.2519457715315768    0.2530141242794525    0.9210231746924448 O
   0.2526361738189063    0.5883569403546738    0.2501235295611843 O
   0.2466909471524065    0.5902511795158984    0.5917723269041406 O
   0.2612787735883214    0.5874058746478726    0.9136216730605268 O
   0.2558924889289457    0.9253398955635617    0.2419330192489630 O
   0.2392796959194931    0.9302278165367788    0.5904860928144890 O
   0.2437817881705264    0.9287778766827122    0.9180937454592374 O
   0.5937690795613265    0.2488224232143707    0.2531037822984740 O
   0.5830772055416102    0.2528310544006663    0.5922121995463957 O
   0.5854558298020345    0.2616988384955647    0.9107817272753167 O
   0.5915424624391117    0.5901908797759620    0.2504504123609672 O
   0.5845594676121295    0.5900629488758672    0.5864819755786971 O
   0.5861504085103650    0.5915778057544498    0.9161304440764246 O
   0.5849492315656227    0.9221264825173586    0.2538324177276682 O
   0.5800006748715449    0.9234513738967542    0.5875880433712470 O
   0.5857501872050379    0.9191224522997943    0.9172258238154002 O
   0.9169514326906155    0.2546458794734661    0.2500859498552909 O
   0.9112360846071078    0.2622290523131080    0.5829793300341275 O
   0.9252666303073941    0.2505061297779373    0.9168995795920734 O
   0.9190603790329567    0.5914461624677708    0.2454818331062299 O
   0.9198896592473953    0.5865179546353945    0.5836189674611779 O
   0.9273395568236024    0.5838525926809978    0.9213911856179692 O
   0.9239262419892647    0.9176177147315676    0.2528701143589057 O
   0.9148083451273366    0.9205430269128767    0.5930912499075135 O
   0.9250440783489557    0.9183975757265523    0.9221300123717525 O
   0.0774754441872722    0.0855748840331077    0.0798517834541211 O
   0.0912767775019064    0.0777067624923769    0.4036032755331365 O
   0.0863992491854602    0.0749796543669898    0.7390089104254410 O
   0.0761759277318165    0.4112416220508650    0.0780579056690992 O
   0.0760055033217089    0.4165218019133954    0.4090217000092417 O
   0.0746734059726015    0.4128953477203893    0.7514843325272711 O
   0.0837662620817858    0.7507755879837148    0.0746282853541712 O
   0.0837317750092806    0.7418138514227773    0.4123276821129039 O
   0.0826405809885935    0.7449366470838492    0.7456742446479167 O
   0.4124854607927171    0.0746996921592458    0.0879734548599288 O
   0.4026652073120898    0.0733354619319280    0.4253364012330059 O
   0.4055700653872643    0.0770912845781936    0.7514191510784969 O
   0.4135250605233569    0.4091287027237004    0.0801940689454697 O
   0.4143288928738627    0.4092253240128930    0.4177157952073531 O
   0.4211428798065849    0.4173544625870599    0.7317578901667301 O
   0.4107400727834943    0.7370621764315870    0.0898889718916870 O
   0.4117004373273593    0.7412287806739714    0.4205620946093607 O
   0.4155758192032322    0.7385964558170466    0.7535194782354211 O
   0.7350568043684034    0.0785851806023394    0.0871872905776069 O
   0.7366280795261860    0.0859094786455233    0.4156079292802138 O
   0.7382386099009461    0.0753837348781695    0.7581160533967763 O
   0.7294407584836310    0.4245300344700438    0.0865237873290950 O
   0.7420996903979931    0.4137890922647317    0.4157508913651912 O
   0.7481885149188585    0.4064394398618120    0.7483076712380420 O
   0.7585952986686897    0.7395249156362920    0.0748411652341537 O
   0.7420686559913118    0.7493991601087499    0.4128050790318084 O
   0.7482060175566325    0.7504817156053560    0.7451219714483107 O
