Li23 Co27 O54
1.0
  14.1209132099999994   -4.2168848700000003   -0.0134986200000000
  14.1209132099999994    4.2168848700000003   -0.0134986200000000
  12.8685137100000002    0.0000000000000000    7.1821868699999998
Li Co O
23 27 54
direct
   0.0006388687879231    0.0064231009647273   -0.0024848627603764 Li
   0.0008510269180078    0.0014836052604195    0.3341965632983255 Li
   0.0048329697026910   -0.0006507739148916    0.6620346566097151 Li
  -0.0090558882512875    0.3356906655713827    0.0073227187800502 Li
   0.0026727195462000    0.3300459394174561    0.3383056754795138 Li
   0.0087266045530174    0.3328896343734335    0.6598961613842971 Li
   0.0085775957490441    0.6605695345373789   -0.0068228687917481 Li
   0.0098996704877826    0.6647523828723894    0.6615641070167599 Li
   0.3286633789644219    0.0065185389100904   -0.0014560754891648 Li
   0.3354375405783156   -0.0012910643242992    0.3345567151300636 Li
   0.3300171540243981    0.0036694793478251    0.6686386932844746 Li
   0.3314285530725779    0.3404063930196852   -0.0054689144552453 Li
   0.3343564640682155    0.3387411187329933    0.6637413232207939 Li
   0.3252751916418845    0.6701572565311331    0.0086483240119932 Li
   0.3358929892885365    0.6607002603225288    0.3396666408180686 Li
   0.3279621860900996    0.6721260986269481    0.6688302496614627 Li
   0.6651091520106865    1.0082926251105693   -0.0044535707044627 Li
   0.6635114219755500    0.0039166909366840    0.3342056607344999 Li
   0.6605588953035257    1.0052067535991585    0.6652307272193587 Li
   0.6683197849839424    0.3270512643406481    0.0050586125340128 Li
   0.6641466113371828    0.3281353723026915    0.6671371403153973 Li
   0.6537702043003868    0.6757518892755136    0.3360717868603466 Li
   0.6686285636525884    0.6624274476407663    0.6684779468635150 Li
   0.1647145597831226    0.1681882481553725    0.1692674953418060 Co
   0.1620274980904204    0.1586236435070355    0.5102376536020984 Co
   0.1715078786904451    0.1598518044643115    0.8337377129157535 Co
   0.1720760460329301    0.4915125875509335    0.1680965837039930 Co
   0.1663905785870174    0.5045187361967922    0.4979134877551799 Co
   0.1630775824269776    0.5038751911200678    0.8346006295473457 Co
   0.1615494926871516    0.8355899318526805    0.1655048124795335 Co
   0.1647660844414483    0.8309937836062169    0.5020863926623130 Co
   0.1713932769724777    0.8250632903889377    0.8352247854086227 Co
   0.4945848129290891    0.1622356667347384    0.1767138855741123 Co
   0.4987619884076517    0.1671229910345768    0.5045259470157519 Co
   0.4894210066290261    0.1818597114291033    0.8305176775780043 Co
   0.5017060202954982    0.5093725349602344    0.1573070029283198 Co
   0.5037356656048032    0.5051162126681558    0.4888291676343831 Co
   0.5000819810797802    0.4976323094628698    0.8334382856077920 Co
   0.4981874919829158    0.8391719307162363    0.1641540352273436 Co
   0.5148235853738304    0.8216139614414035    0.5037571885311412 Co
   0.5032891187845507    0.8273313580630393    0.8355648429391133 Co
   0.8379723574302683    0.1587539534803049    0.1709032189971327 Co
   0.8410682831169002    0.1617010271383520    0.4942065930136051 Co
   0.8328497454372932    0.1638258487774191    0.8353870936315781 Co
   0.8320443074711616    0.5028187048001120    0.1652680664977307 Co
   0.8403059385704303    0.4927385877672516    0.4946067938422425 Co
   0.8284183848053299    0.5059220037793504    0.8339022598509149 Co
   0.8306400033375834    0.8272733395306378    0.1738983665416615 Co
   0.8365991256735357    0.8348301477391191    0.4930927205313730 Co
   0.8360583295348782    0.8347134220594379    0.8298390462581211 Co
   0.2436507365758569    0.2542262419863099    0.2614391107016211 O
   0.2469648681564149    0.2582815261315899    0.5848043329207179 O
   0.2572827998863106    0.2486391843109527    0.9175363837380803 O
   0.2474222807028835    0.5884874795402455    0.2600079467664033 O
   0.2525363628629717    0.5800001450332803    0.5960006912793838 O
   0.2585586772709279    0.5893185647143646    0.9129973916252632 O
   0.2642171265305950    0.9093070383051288    0.2546128237370474 O
   0.2504109044423314    0.9206938800025096    0.5926088225298778 O
   0.2454828793797436    0.9178914566778988    0.9272222593074647 O
   0.5865719254540183    0.2573842707997279    0.2479998753411618 O
   0.5897223573269752    0.2556248258676027    0.5828909039102756 O
   0.5934633152753561    0.2502506695727093    0.9215884609159138 O
   0.5884347314485733    0.5925051026354869    0.2456904445227995 O
   0.5837919752078460    0.5905703961644595    0.5868027272868465 O
   0.5778812325738868    0.5968433870856276    0.9178287179930757 O
   0.5787211370655643    0.9249843404425895    0.2601740333243654 O
   0.5874440986756054    0.9227205724828248    0.5834921233423421 O
   0.5939655179330898    0.9168825234655951    0.9135605198109520 O
   0.9167421540783789    0.2508686116742257    0.2567526913050883 O
   0.9184115297419404    0.2511420790992499    0.5876815729061031 O
   0.9210013169468940    0.2542445913904269    0.9179353786569963 O
   0.9151150116276164    0.5924959842863425    0.2532533020955902 O
   0.9117871916964990    0.5927249671640025    0.5936891353328001 O
   0.9238060918803663    0.5867412151551334    0.9191359096670518 O
   0.9312595246924846    0.9179454048447218    0.2451467968217311 O
   0.9205605010757577    0.9239129982842421    0.5842167432365187 O
   0.9260316545849827    0.9171302235546952    0.9172327674268482 O
   0.0770256894362826    0.0848347504617304    0.0805491343481902 O
   0.0784024552251696    0.0771788595859115    0.4178980341749445 O
   0.0812925275952252    0.0829216542902981    0.7424730674384388 O
   0.0842155178713671    0.4164110261421564    0.0735537598088522 O
   0.0755750447749735    0.4161966120280740    0.4140023186698781 O
   0.0707668961054360    0.4165145509693550    0.7560955132302400 O
   0.0897850044443994    0.7441927641644674    0.0724587229634809 O
   0.0880477562505010    0.7371700402835720    0.4152538662566628 O
   0.0806125735568490    0.7368109271868124    0.7539732014976445 O
   0.4212104142052764    0.0749810157476316    0.0773160692632574 O
   0.4166602002215019    0.0758351200861612    0.4157457790948338 O
   0.4159896854597603    0.0768910357435839    0.7442737663041369 O
   0.4134422816442434    0.4224508468068396    0.0751462904548801 O
   0.4041351919858341    0.4200090959824023    0.4144570987885591 O
   0.4163578475302713    0.4124714608221989    0.7460501227854652 O
   0.4017933389564453    0.7533426407786716    0.0839384744899280 O
   0.4146168083095165    0.7490544381301300    0.4037877118182381 O
   0.4113943029869843    0.7549308047347024    0.7414513947651900 O
   0.7469797700637496    0.0749524165797331    0.0841914132199753 O
   0.7492616751465534    0.0754197076379420    0.4152799162414641 O
   0.7463883790247008    0.0869796743550724    0.7416819110663984 O
   0.7503387544585440    0.4128372930624430    0.0725394013581555 O
   0.7457796534303540    0.4086397783310382    0.4145280228227507 O
   0.7541230591424020    0.4190806238546295    0.7357317460749921 O
   0.7463238555594484    0.7559717181912061    0.0691030458455487 O
   0.7513781770150769    0.7425709715869340    0.4164870817085400 O
   0.7498722578496285    0.7423796096879053    0.7505617149113313 O
