Li24 Co27 O54
1.0
  14.1209132099999994   -4.2168848700000003   -0.0134986200000000
  14.1209132099999994    4.2168848700000003   -0.0134986200000000
  12.8685137100000002    0.0000000000000000    7.1821868699999998
Li Co O
24 27 54
direct
  -0.0033706504350406    0.0018539485149575    0.6694060125101325 Li
   0.0057397859806548    0.3303128238164780   -0.0046731848545619 Li
  -0.0082050224665768    0.3294556205519524    0.3505013121782481 Li
   0.0020907547861914    0.3238595703132394    0.6695643470082521 Li
   0.0066426647046945    0.6720154150720660   -0.0106961665923947 Li
  -0.0007834981200273    0.6661117634286075    0.3313952193449265 Li
  -0.0088706730539246    0.6733089626802640    0.6677287048023710 Li
   0.3355475437528145   -0.0064728110956338    0.0037972026008099 Li
   0.3324937678664615   -0.0015181466458791    0.3367134864338387 Li
   0.3382345126850589    0.0086645449797436    0.6564667542858559 Li
   0.3310822493335335    0.3315835689237892    0.0039980753520838 Li
   0.3322405472395994    0.3407701036955085    0.3275386402565628 Li
   0.3284763471065902    0.3395019221724113    0.6699505497361370 Li
   0.3396703276526247    0.6569791816834593   -0.0028010613913968 Li
   0.3333582857075610    0.6661284401583650    0.3345155937837872 Li
   0.3371393311819134    0.6630339908890616    0.6634382658015939 Li
   0.6664123873344138   -0.0030707337994198    0.3364310955766835 Li
   0.6603063299439973    1.0113554667335245    0.6616155050106680 Li
   0.6755451259165083    0.3397660425557930   -0.0123929746533650 Li
   0.6687638146616026    0.3296886501838608    0.3345433892295724 Li
   0.6621052578006912    0.3327502562792879    0.6700000733091169 Li
   0.6673930501553025    0.6588605925283705    0.0059619397521075 Li
   0.6717479476370062    0.6699369885442512    0.3261362939525054 Li
   0.6692870506383102    0.6602061133574475    0.6665280896009341 Li
   0.1702505713226034    0.1680602415204904    0.1624712349203884 Co
   0.1645443481695604    0.1697552120899888    0.4999852574987725 Co
   0.1718951829362414    0.1665349896552663    0.8272651555426663 Co
   0.1642378922552339    0.5036832201750840    0.1628808449958094 Co
   0.1650570098276741    0.5033944500022947    0.4984811006933224 Co
   0.1619471210462944    0.5136820295944269    0.8273827073034630 Co
   0.1630489066825146    0.8322342177214164    0.1712560305156470 Co
   0.1560759493710125    0.8333933561537015    0.5091804192555468 Co
   0.1656530339568711    0.8303780864558652    0.8344113830952307 Co
   0.4974697799191938    0.1685772054348356    0.1639947059384700 Co
   0.4976160103914558    0.1643855332242554    0.5031793792699932 Co
   0.4856385774322873    0.1743569802994685    0.8352000526040344 Co
   0.4969641673493649    0.4916943842040116    0.1728672855738804 Co
   0.4908770567760808    0.5023960312694304    0.5068448644020386 Co
   0.5052739331365862    0.5003287825603101    0.8276572284868511 Co
   0.5016742726451615    0.8369992028811533    0.1625891989178284 Co
   0.5068649864156944    0.8280927892848403    0.4969604475346785 Co
   0.4957626818651144    0.8337163118088733    0.8346120561607989 Co
   0.8354508081579446    0.1657907237612403    0.1650853894643419 Co
   0.8350740958638896    0.1738440351148861    0.4927277039178898 Co
   0.8258559529822452    0.1695333819221194    0.8364625569412573 Co
   0.8279649070761788    0.5044596004975160    0.1686090659312744 Co
   0.8305466044241340    0.5037848489379811    0.4984583520660446 Co
   0.8349615809136985    0.5076472267132357    0.8258658154094823 Co
   0.8312151312654761    0.8397063649432579    0.1608518153195721 Co
   0.8309150544281978    0.8313494715349221    0.5069919324949748 Co
   0.8379911597206833    0.8283632254069824    0.8313869565638682 Co
   0.2597473611583227    0.2499491172210726    0.2526232927630740 O
   0.2494784636067308    0.2587048765523601    0.5844587196952372 O
   0.2511147169105118    0.2623251284961670    0.9164606938556502 O
   0.2529301972297543    0.5929483985751989    0.2483332007992528 O
   0.2525775424039736    0.5901580829717710    0.5821791869186066 O
   0.2535434558945218    0.5814823612660409    0.9242153461555050 O
   0.2513092966272898    0.9198605524446275    0.2542766364463164 O
   0.2513854893965118    0.9240377044211674    0.5800658355313730 O
   0.2485780429563966    0.9160861063420251    0.9234398858037628 O
   0.5911732178891136    0.2491231983091385    0.2519330668204806 O
   0.5768422967079626    0.2563804482932396    0.5955213288135536 O
   0.5885490855597891    0.2529037232414603    0.9243765036896937 O
   0.5842463645201172    0.5866898298286145    0.2575369244704540 O
   0.5776928392447384    0.5885849723419242    0.5949651594309112 O
   0.5858388647576369    0.5908985096976369    0.9197372120119495 O
   0.5837136444326925    0.9251330407696794    0.2466152819915973 O
   0.5900826400755359    0.9227186219152934    0.5847817318131718 O
   0.5815724612261362    0.9211274015865709    0.9248111340158985 O
   0.9239090749687302    0.2534713525649163    0.2481310159562400 O
   0.9232106880061937    0.2489660004621914    0.5843143139797021 O
   0.9200796901662285    0.2474589494783739    0.9253136758824132 O
   0.9180344782454504    0.5823865016668432    0.2622884137375855 O
   0.9213230028248924    0.5874506328130059    0.5834665755974843 O
   0.9148431021735731    0.5891839339193500    0.9219879400701749 O
   0.9217589567709980    0.9188814464374598    0.2533540090485905 O
   0.9147735373804391    0.9172410654595728    0.5932118098153552 O
   0.9171583622643553    0.9202571833144435    0.9170377233317644 O
   0.0725909037035186    0.0776346184783831    0.0891993802098935 O
   0.0760309905481407    0.0779076584162536    0.4181752141981424 O
   0.0783058187338353    0.0834335370807380    0.7440393789203082 O
   0.0826407796634401    0.4222889828608284    0.0696981268769134 O
   0.0778512832524095    0.4080007182662227    0.4161369138883787 O
   0.0772032436646273    0.4229357618999631    0.7456767752252715 O
   0.0861307672783395    0.7450659961559887    0.0719961089502068 O
   0.0841533863844099    0.7439397501858971    0.4107465338446750 O
   0.0812333482972986    0.7409790115620097    0.7498026047910937 O
   0.4070039581881306    0.0910684677509839    0.0757267349599225 O
   0.4169458309253392    0.0802913033697853    0.4038746003021228 O
   0.4213805858981698    0.0852314488103291    0.7365060804012212 O
   0.4153979488710900    0.4140278233401752    0.0747327635597110 O
   0.4106215150885972    0.4119992948857788    0.4152002424737641 O
   0.4194789767977462    0.4154050070325380    0.7390108126136065 O
   0.4155653448843182    0.7533022072639934    0.0658379149655319 O
   0.4160223211864157    0.7466596725137754    0.4143771673039603 O
   0.4139048036331536    0.7528282531810976    0.7382404279352406 O
   0.7389077808542019    0.0757379888120951    0.0906946044794319 O
   0.7511988284110418    0.0836642623826547    0.4053305037421436 O
   0.7433623840682100    0.0865487801407080    0.7447998009640261 O
   0.7385631544380529    0.4221591136169521    0.0775898237628922 O
   0.7442317230156550    0.4147245176354228    0.4135699215881530 O
   0.7542900236371447    0.4092602702781987    0.7463185030081858 O
   0.7513854353016554    0.7424559510976020    0.0754321371239079 O
   0.7438138813569164    0.7448863543221065    0.4128814581612383 O
   0.7509855592024220    0.7427615709905196    0.7466689470163921 O
