Li22 Co27 O54
1.0
  14.1209132099999994   -4.2168848700000003   -0.0134986200000000
  14.1209132099999994    4.2168848700000003   -0.0134986200000000
  12.8685137100000002    0.0000000000000000    7.1821868699999998
Li Co O
22 27 54
direct
   0.0044973794666858   -0.0013939206077906   -0.0019727689227552 Li
   0.0097478507632968   -0.0114655501174481    0.3345018390095440 Li
  -0.0024755490213082    0.0093532056636111    0.6614487728136251 Li
  -0.0098750804846152    0.3346881502227820    0.6749613257763381 Li
   0.0035409365119171    0.6604008299909810    0.0063479389042369 Li
   0.0028200670556942    0.6607715775936193    0.3354369864252362 Li
  -0.0055079440357864    0.6706827802391755    0.6642857783971160 Li
   0.3315787510989906    0.0046996887272854   -0.0042565968639827 Li
   0.3399487307848595   -0.0074810399869635    0.6686090577657654 Li
   0.3369962177884651    0.3347005056702589   -0.0007037437872726 Li
   0.3305199337711275    0.3284234058551400    0.3399445162885752 Li
   0.3374803456867586    0.3272971399443338    0.6702772624133811 Li
   0.3428785548015700    0.6697502328154175    0.3222891342923444 Li
   0.6619343374255479    0.9961288490077542    0.0034427691426228 Li
   0.6613258095259574    0.0069527763917570    0.3351707036879517 Li
   0.6673017894176012    0.9971911358228411    0.6690021500844509 Li
   0.6652862701944077    0.3262230189226399    0.0083899521519605 Li
   0.6674606441965943    0.3285086047504355    0.3379099735076244 Li
   0.6643399387072442    0.3305006700944458    0.6710218585035189 Li
   0.6690192693270588    0.6644691641656568    0.0008697436248639 Li
   0.6684908800185273    0.6663047105355188    0.3317861575147666 Li
   0.6625705571981857    0.6679288888793802    0.6722856717855555 Li
   0.1669541186231415    0.1773132799904479    0.1589519331111586 Co
   0.1686685642474456    0.1728353034868174    0.5007279207621871 Co
   0.1598493626348402    0.1701566600719864    0.8342518916958571 Co
   0.1623490514259780    0.5046295487966976    0.1658658342152595 Co
   0.1661912425544629    0.5040343946507998    0.4966354828993811 Co
   0.1608819220329348    0.5107785390368976    0.8284322453299420 Co
   0.1654527861566704    0.8420437880630057    0.1624127348411517 Co
   0.1712401624872128    0.8324952212653454    0.4933482288851977 Co
   0.1630744156864897    0.8326899591578275    0.8384245898483220 Co
   0.5038747595248140    0.1710014398298989    0.1603873998965735 Co
   0.5045711559738533    0.1661054447925635    0.4969896019550907 Co
   0.4934903727679314    0.1680692033840179    0.8356762320392009 Co
   0.5027628651141397    0.5054683806283564    0.1610152824912990 Co
   0.4912698469972625    0.4967129270580133    0.5057447617930526 Co
   0.5033416813685225    0.4967507091857919    0.8409885452375668 Co
   0.5112524970840366    0.8273136379784712    0.1639544550677882 Co
   0.4972080860194851    0.8403989661428161    0.4982271741539018 Co
   0.4956480075612109    0.8311800341419029    0.8354757063816729 Co
   0.8276141380434272    0.1662259825844847    0.1696948221829893 Co
   0.8347980608642641    0.1607519233310679    0.5025308293758883 Co
   0.8364743760315230    0.1600458299666968    0.8352046689854749 Co
   0.8371473419833159    0.4943389004499119    0.1699650720336668 Co
   0.8277803555005039    0.4944743739835852    0.5070691078508811 Co
   0.8394188810913022    0.4965895493239370    0.8340693461835540 Co
   0.8340799283024861    0.8343121976351444    0.1614672834317419 Co
   0.8273081328650633    0.8351978843296368    0.5043446255423383 Co
   0.8374474400163225    0.8371545474070412    0.8304775903733937 Co
   0.2586324059050478    0.2552238758867775    0.2474609831889823 O
   0.2556434015585767    0.2535934959275113    0.5825637940941513 O
   0.2552346685420725    0.2510964387494992    0.9200869548481641 O
   0.2489274769657471    0.5903945896138685    0.2569779851810018 O
   0.2732909642903230    0.5771690684399298    0.5771752158738016 O
   0.2554303760313207    0.5860591676950611    0.9154200644932877 O
   0.2492343522125398    0.9198788242740324    0.2529850036687663 O
   0.2450838701952229    0.9204997294950807    0.5909593630909252 O
   0.2541311443686399    0.9159689150055612    0.9220451029137933 O
   0.5853705150623685    0.2550837632614810    0.2509056644742824 O
   0.5905127060483853    0.2600106076326743    0.5768978173360214 O
   0.5788833372016069    0.2644852193135971    0.9159782247466908 O
   0.5898830179880354    0.5816443882496544    0.2547552636212403 O
   0.5871616219483375    0.5836180837440117    0.5905629434030206 O
   0.5809719679942358    0.5878117077262004    0.9217521586030677 O
   0.5821056973129368    0.9322311885333632    0.2458015016118738 O
   0.5777321294652135    0.9228347832820325    0.5923511548488626 O
   0.5840863305868488    0.9153555309116900    0.9273170205995059 O
   0.9121808465427779    0.2568730628923900    0.2549731234788327 O
   0.9254343403965750    0.2590120252858142    0.5756660855162172 O
   0.9277193506501771    0.2524398974216410    0.9111130448572878 O
   0.9127408790572087    0.5905370054872913    0.2538145964533832 O
   0.9290212830329767    0.5822877516065759    0.5846590369407965 O
   0.9026275232168037    0.5924512195773257    0.9303827364738300 O
   0.9078259648594773    0.9283612329766353    0.2598887415424861 O
   0.9200433604327005    0.9186229953020142    0.5865206943127855 O
   0.9248652133093874    0.9124230858774124    0.9223957362234346 O
   0.0785974943623673    0.0739789721503714    0.0858737910572991 O
   0.0923502035714125    0.0819765735218980    0.4006632116869552 O
   0.0693126086211742    0.0855044475433252    0.7518039528481386 O
   0.0710905950898441    0.4040837094971467    0.0956109961451909 O
   0.0868412955259629    0.4155739232262421    0.4048599363287697 O
   0.0837401319155416    0.4136652221652126    0.7429811108663901 O
   0.0786565459106823    0.7447608744011764    0.0830802265495826 O
   0.0758434206350836    0.7479654308001416    0.4195777870981741 O
   0.0754029357285466    0.7494084317433997    0.7485060838166552 O
   0.4152862904762936    0.0830078757300233    0.0791739218361488 O
   0.4059693849297428    0.0827022166841534    0.4222183640810783 O
   0.4174948752283281    0.0773588069794648    0.7465398220222631 O
   0.4118545735204923    0.4138949056563406    0.0783238153888944 O
   0.4084396363488438    0.4157092006276223    0.4154222088388257 O
   0.4157667770223852    0.4134548169350993    0.7433452569007872 O
   0.4128430992691119    0.7438196255784084    0.0869223004922690 O
   0.4125075106864988    0.7503124375945308    0.4129854973899510 O
   0.4141482421061624    0.7464749274622315    0.7480776351503213 O
   0.7452334427586619    0.0811230726105772    0.0793314314539738 O
   0.7483221139141750    0.0820581715206080    0.4136130568585000 O
   0.7325800829470095    0.0829503638079542    0.7575036059418881 O
   0.7474876395971127    0.4157551239128017    0.0753080032333470 O
   0.7508491191114044    0.4138777899833117    0.4049848953388148 O
   0.7505136222827871    0.4023630413145665    0.7566797246343625 O
   0.7532253800515700    0.7409518359255606    0.0787698281882384 O
   0.7549228570792510    0.7419892908496175    0.4110370647958799 O
   0.7401651568659304    0.7566254999805690    0.7437698224770644 O
