Li20 Co27 O54
1.0
  14.1209132099999994   -4.2168848700000003   -0.0134986200000000
  14.1209132099999994    4.2168848700000003   -0.0134986200000000
  12.8685137100000002    0.0000000000000000    7.1821868699999998
Li Co O
20 27 54
direct
  -0.0117497912045895    0.0008876882315910    0.0076339701405556 Li
  -0.0097031450723283    0.0020937440524047    0.3349690047394508 Li
   0.0067343731788377   -0.0100969057660716    0.6671293505594027 Li
  -0.0050797677094542    0.3322091519889386    0.0041919849250285 Li
  -0.0009442862858172    0.3348129040973528    0.3333714211758693 Li
   0.0084306692406469    0.3292635158834746    0.6616339310236835 Li
   0.0012441548624038    0.6595998391059517    0.6702565053005825 Li
   0.3344670345084901   -0.0015350852279503    0.3284246725062009 Li
   0.3396497016105400   -0.0069056207436914    0.6674410481424596 Li
   0.3338281600326406    0.3387733846145132   -0.0070029651504618 Li
   0.3214108051671896    0.3367958688314741    0.3404028845639071 Li
   0.3271587809644289    0.3330086533059762    0.6726889388982465 Li
   0.3355371956034396    0.6745611331074840   -0.0104100278229769 Li
   0.3263539335516841    0.6761231410156852    0.6597672969670185 Li
   0.6712297861649604    0.9995497517985328   -0.0038927823206113 Li
   0.6693603457703257   -0.0089241697944322    0.3394839772919417 Li
   0.6653056665856582    0.3343406251287853    0.0011865099614951 Li
   0.6689400756802126    0.3290652002832544    0.3345709129114050 Li
   0.6648152369688914    0.6629060510350637    0.3338994641100418 Li
   0.6643129981781413    0.6679554274281503    0.6665815330347042 Li
   0.1561481951678216    0.1583412359762622    0.1784251764014418 Co
   0.1663517600846274    0.1670776012356219    0.4974261993195118 Co
   0.1656728191018772    0.1678381032270858    0.8340677563306789 Co
   0.1556825316890723    0.5014089066118321    0.1751599147628033 Co
   0.1725229782661215    0.5017271511707441    0.4932739839546883 Co
   0.1583616556772294    0.5068192837181769    0.8329225111824698 Co
   0.1682080179198225    0.8255469311096328    0.1693063250399878 Co
   0.1649781583412956    0.8297066171667130    0.5040987585767480 Co
   0.1670578696109355    0.8293163781440362    0.8394578159871660 Co
   0.4991168292345668    0.1700021879498715    0.1645531083475928 Co
   0.5086111741854467    0.1618946183959907    0.4949516519547804 Co
   0.5050722282419737    0.1620396214506132    0.8313898198326782 Co
   0.5032501498963293    0.5014233651989580    0.1636822441343015 Co
   0.4987451329761757    0.4960252173761280    0.5073795529986490 Co
   0.5040628976291553    0.5025407850494312    0.8296840060096207 Co
   0.4924378103097992    0.8422385540908290    0.1662859994811871 Co
   0.5013146869963416    0.8337320667337418    0.4969346462266918 Co
   0.5045892740467950    0.8373083414695119    0.8273536672990286 Co
   0.8325266753424968    0.1609529356319527    0.1725451067745163 Co
   0.8323136929200089    0.1731140440773946    0.4986926153829963 Co
   0.8339549603985342    0.1651859192652543    0.8353102296779549 Co
   0.8353618584801936    0.5069137705210878    0.1612420607776143 Co
   0.8317235281344530    0.5106661394035589    0.4912015562328336 Co
   0.8363306591185192    0.4917991701729262    0.8383693834772259 Co
   0.8321214194198466    0.8308780666292745    0.1698677999822737 Co
   0.8307156707847481    0.8309344994781438    0.5077391562187098 Co
   0.8359242510565662    0.8270056988222948    0.8362844840508671 Co
   0.2534312182073859    0.2509649854987748    0.2553180940340674 O
   0.2528626951228684    0.2490244272927191    0.5929399149056426 O
   0.2546611325036655    0.2437973522300025    0.9237981355889096 O
   0.2440535276139340    0.5912910231530113    0.2589298495362926 O
   0.2543200205762364    0.5885400177950588    0.5847248878596292 O
   0.2594213659283289    0.5855618269394960    0.9137537828569846 O
   0.2511886202999918    0.9215325293358211    0.2485560307354357 O
   0.2509139798042503    0.9158649085672395    0.5914664536438820 O
   0.2541283858217065    0.9132135706243831    0.9256476221284949 O
   0.5859883233091132    0.2485121690156592    0.2583396645269649 O
   0.5871170051123435    0.2526094142054110    0.5912001870835422 O
   0.5940750085160180    0.2461876906847932    0.9176477766614072 O
   0.5832998125599251    0.5935248643860443    0.2530816041758864 O
   0.5798523835091618    0.5932195512194045    0.5869925387323890 O
   0.5918927984402551    0.5830866824444989    0.9202502281416916 O
   0.5864864646736297    0.9211009467389161    0.2531498902418260 O
   0.5873622211889482    0.9239948803071577    0.5833020747460569 O
   0.5874148977579661    0.9219149095790027    0.9152844644733198 O
   0.9176983691116409    0.2598199387320549    0.2539493519404810 O
   0.9169380342934321    0.2514789114154729    0.5888333641652388 O
   0.9194192723092689    0.2595299225791907    0.9195643215134441 O
   0.9177187528710254    0.5832492237745558    0.2545583000509105 O
   0.9215193196368141    0.5871203522183970    0.5847835060755503 O
   0.9182888186406233    0.5880106659118576    0.9188374898038777 O
   0.9244114257512198    0.9113219633472557    0.2562731942464451 O
   0.9259217418223071    0.9069627981164898    0.5941046703022866 O
   0.9142402690400205    0.9284295046170187    0.9222055157330338 O
   0.0811297940920486    0.0822685651073688    0.0769539055025303 O
   0.0810937678083285    0.0825209303853208    0.4112783246381173 O
   0.0795875227567456    0.0768011498812229    0.7482190566952339 O
   0.0840906904021151    0.4038376613403928    0.0870051289825592 O
   0.0769862123241924    0.4130772504231984    0.4166831510800938 O
   0.0805051776272490    0.4177045594861869    0.7422053856307472 O
   0.0807630103582608    0.7518181131078004    0.0704563269892950 O
   0.0803471057647166    0.7362415312608904    0.4207395579798316 O
   0.0883163084458630    0.7407378897567745    0.7449447070037198 O
   0.4157342100782166    0.0753130839089932    0.0800108987858263 O
   0.4072305037712941    0.0822557890937607    0.4162733082253031 O
   0.4075065497430823    0.0862751069414758    0.7433657699074423 O
   0.4109327043585030    0.4127480994619651    0.0790671975858221 O
   0.4048110067480427    0.4174694992595255    0.4174456945751838 O
   0.4186209140081913    0.4110065946248597    0.7472456460072787 O
   0.4105433803108528    0.7472291252664944    0.0800170733993679 O
   0.4103449979316143    0.7474962202232308    0.4148478499745205 O
   0.4136802045322410    0.7454841274136788    0.7489241794741234 O
   0.7527627056559983    0.0803382491060769    0.0739588328499338 O
   0.7594566988185776    0.0730019505129772    0.4089675785058384 O
   0.7502426646955984    0.0777711494519245    0.7440671956621265 O
   0.7530410855256643    0.4032267904264035    0.0833164261994635 O
   0.7434227984428710    0.4252222863884182    0.4063972459422215 O
   0.7563626505759972    0.4151463649889884    0.7378513146381748 O
   0.7418847605974148    0.7452513612594814    0.0839765684496961 O
   0.7559926294174606    0.7446091593610962    0.4059445717934798 O
   0.7452922948885827    0.7438070944606023    0.7528251746394353 O
