Li20 Co27 O54
1.0
  14.1209132099999994   -4.2168848700000003   -0.0134986200000000
  14.1209132099999994    4.2168848700000003   -0.0134986200000000
  12.8685137100000002    0.0000000000000000    7.1821868699999998
Li Co O
20 27 54
direct
   0.0054510434265645   -0.0038381318118307    0.0014023824491847 Li
  -0.0074530095022685    0.0086150002474480    0.6684628388347010 Li
  -0.0066041480755224    0.3371694329250879    0.0029515661852433 Li
  -0.0007792044971310    0.3259651932319622    0.3372397433944379 Li
  -0.0017251036178866    0.3384929671038256    0.6641663398809493 Li
  -0.0027937311399384    0.6679312166911552    0.3400255435524914 Li
  -0.0126345911246844    0.6745001236766298    0.6697516024468719 Li
   0.3442313640975306   -0.0041751822718024   -0.0096329030618695 Li
   0.3292144633628541    0.0003776905475967    0.3320056792886952 Li
   0.3348660146826972   -0.0008500445460944    0.6619778009351457 Li
   0.3298309826310599    0.3314071504583981    0.0011613951027069 Li
   0.3371621549075399    0.3318652927548265    0.6639159527912609 Li
   0.3305808126803992    0.6721419614954653   -0.0060617723044004 Li
   0.3279009891386396    0.6749471558390190    0.3268247050183405 Li
   0.3360133379048615    0.6659505248697350    0.6647111990955751 Li
   0.6597276498222748    0.0073037806457120    0.3286674794260432 Li
   0.6708003072494240    0.9950435678960126    0.6674252137186338 Li
   0.6656684057285465    0.3294515526008679    0.0034757689182176 Li
   0.6636535148959530    0.6788046620689915   -0.0080650090162612 Li
   0.6652946300488682    0.6610664246756197    0.6706221729772973 Li
   0.1638794319244519    0.1637759232630241    0.1695633744335607 Co
   0.1646450904437026    0.1662521323915559    0.5019891289976089 Co
   0.1627162124482175    0.1675944057684984    0.8344921823307857 Co
   0.1708426548382406    0.4933989357079998    0.1719833688743347 Co
   0.1670320261699622    0.5041486158327924    0.4940057374007708 Co
   0.1677343205996399    0.5018012082781729    0.8360462393010678 Co
   0.1571261863613096    0.8412034834695608    0.1672151200350522 Co
   0.1597579188833227    0.8435601103146272    0.4945446566466021 Co
   0.1682967060217260    0.8400990988289407    0.8288804932334217 Co
   0.5018017768244007    0.1567224841209224    0.1740052436465837 Co
   0.5059079284002266    0.1680333756102371    0.4958211944097240 Co
   0.4981507581356943    0.1673265200908163    0.8356557748042833 Co
   0.5101936992501827    0.4913100104338837    0.1645781187113076 Co
   0.5047982088091203    0.5055678881900774    0.4909183741283822 Co
   0.5057647133820675    0.4952364547935970    0.8302200941141861 Co
   0.5012732537630173    0.8319959844265744    0.1731588288424468 Co
   0.4957466752819174    0.8392996491930503    0.4983448882191372 Co
   0.4916740118640575    0.8388632327250447    0.8332701869375229 Co
   0.8392908078946267    0.1571609548197210    0.1688599829356801 Co
   0.8357657834755499    0.1677956468878007    0.4926472462944556 Co
   0.8418151933124427    0.1526944530374804    0.8345427857872563 Co
   0.8352048349777108    0.5008079569444158    0.1625531536371248 Co
   0.8365829944732216    0.4947222585672203    0.5051915567390073 Co
   0.8329361230779360    0.4941738140510516    0.8394680263258019 Co
   0.8325021515164037    0.8321084139707028    0.1700995676877805 Co
   0.8253129116036106    0.8342731442558784    0.5025036485177045 Co
   0.8292199721783411    0.8332073363211892    0.8356103115599964 Co
   0.2535699759741017    0.2590481116278169    0.2454313796648225 O
   0.2528087120604104    0.2559296635143515    0.5836139167576896 O
   0.2487426548637682    0.2530877123303090    0.9278390585719029 O
   0.2488537961489432    0.5873729310181480    0.2555454245263427 O
   0.2471153670043166    0.5822954260988366    0.5964673095585318 O
   0.2504078431980233    0.5827215899416531    0.9294283281886676 O
   0.2505796250498075    0.9272514770247792    0.2468285955385293 O
   0.2475214089345452    0.9310277021427862    0.5763639422084402 O
   0.2488319484164828    0.9209023257085457    0.9273835337446812 O
   0.5843173325873739    0.2532385690413406    0.2518415402172920 O
   0.5829638007414842    0.2503717619303137    0.5929467400143236 O
   0.5812011857542576    0.2538025740434075    0.9254337620277650 O
   0.5879971254140191    0.5840351899684697    0.2521931530001396 O
   0.5941955048018667    0.5806290499562112    0.5851467711009709 O
   0.5905260796124852    0.5851470421769778    0.9205942849592346 O
   0.5853827145801925    0.9188755259259574    0.2557020532060146 O
   0.5939808123481594    0.9192876663559610    0.5789965975322181 O
   0.5939926342922214    0.9141721981535041    0.9158171835503036 O
   0.9182880394929286    0.2450538916237149    0.2609582205060819 O
   0.9122241534733662    0.2543593078385625    0.5916241128348804 O
   0.9192318211747685    0.2615749914383694    0.9156304847239273 O
   0.9221815194945683    0.5861242592886272    0.2504923492164874 O
   0.9164996073057908    0.5853549141918939    0.5879656071277803 O
   0.9229470036711632    0.5866623625028103    0.9161634700568729 O
   0.9195633146809005    0.9191917070755010    0.2548474703380412 O
   0.9210246286753527    0.9188142967319937    0.5842951683679101 O
   0.9170268813758200    0.9200878585978856    0.9217578390889626 O
   0.0674698302688592    0.0755890763444725    0.0923244471827035 O
   0.0756099196406104    0.0879687908524713    0.4099320216352535 O
   0.0865342949485705    0.0849392452847677    0.7339037025102164 O
   0.0870161881638581    0.4108173165057340    0.0782704075949658 O
   0.0774764273696658    0.4165612695086062    0.4126465809824403 O
   0.0817255400461510    0.4077307485772425    0.7475965665214889 O
   0.0788271324747836    0.7535070526792118    0.0695309608961459 O
   0.0812755320484572    0.7454640135769620    0.4128816526407784 O
   0.0798174723305456    0.7412270830936670    0.7500865439813075 O
   0.4135627314977837    0.0770919794443511    0.0861364332779719 O
   0.4114174981013249    0.0734767600177557    0.4220891142847132 O
   0.4129499421759295    0.0832230977489512    0.7422534863107384 O
   0.4165001441563274    0.4116971086978151    0.0796288935097521 O
   0.4211439087098914    0.4098140156158600    0.4110388088344602 O
   0.4146610363299104    0.4058598646960552    0.7540410290740802 O
   0.4088031158027950    0.7525233472636309    0.0748950321084271 O
   0.4155937664366038    0.7456669586198993    0.4158612505970401 O
   0.4012969243184446    0.7518943175515349    0.7474689263334717 O
   0.7510524877451012    0.0764671013537400    0.0817902854798107 O
   0.7480871031095798    0.0778891554379854    0.4139262519269845 O
   0.7492185575856247    0.0729835331792768    0.7526890143561976 O
   0.7349480636223319    0.4202841040550335    0.0833135063111565 O
   0.7513769158623265    0.4128046079000551    0.4068759897059839 O
   0.7347423336527898    0.4189217504902908    0.7548787245265092 O
   0.7460137154594894    0.7402056217620996    0.0855878713958000 O
   0.7460252997333900    0.7466342710237935    0.4157836693110695 O
   0.7355244050816707    0.7470796803963065    0.7510850033420313 O
