Li20 Co27 O54
1.0
  14.1209132099999994   -4.2168848700000003   -0.0134986200000000
  14.1209132099999994    4.2168848700000003   -0.0134986200000000
  12.8685137100000002    0.0000000000000000    7.1821868699999998
Li Co O
20 27 54
direct
  -0.0026010245940778    0.0041632734730409   -0.0023894795087876 Li
   0.0036479294157787   -0.0021997270847285    0.3308701188549951 Li
   0.0017101501544346    0.3332374517535872   -0.0007600964226712 Li
  -0.0013614935631889    0.3359589746271416    0.3297261318394444 Li
   0.0021732905738341    0.6636008320549990    0.3316171040914127 Li
   0.0094184720077236    0.6611595992877943    0.6631777523550755 Li
   0.3334764028882321    0.0024058086922453    0.3315412308844928 Li
   0.3353170279101281    0.0003051004776223    0.6659029768051170 Li
   0.3357905376176331    0.3286187929078963    0.0034200944750873 Li
   0.3334642415882906    0.3231604169276034    0.3434353393751294 Li
   0.3277459081769225    0.3352326357710650    0.6668813768210359 Li
   0.3322350018884720    0.6679025050654814    0.3341453675258927 Li
   0.3349966139912177    0.6696642241924695    0.6619135213264535 Li
   0.6682962057950447    0.9969379668028715    0.0011410467823530 Li
   0.6694875680832509   -0.0002916136257393    0.3309134987162227 Li
   0.6646116667419953    0.3341522695888415   -0.0032513017117524 Li
   0.6649901726006998    0.3319040874804466    0.6695165096835888 Li
   0.6597899849527514    0.6652720339808038    0.0075048350502637 Li
   0.6684379817806189    0.6706992880007043    0.3265190431265126 Li
   0.6576594057427092    0.6731293295071425    0.6670425805059491 Li
   0.1730948362005498    0.1616341439349278    0.1656498839581881 Co
   0.1588865326568642    0.1737663920462856    0.4997604907746657 Co
   0.1638087403806003    0.1692850111744083    0.8349301870801412 Co
   0.1567276217810615    0.4986382417112727    0.1777654563697893 Co
   0.1657774475823923    0.4946437240099076    0.5024278021943753 Co
   0.1680904124224730    0.5039803749600427    0.8282245351446732 Co
   0.1638697302989227    0.8376860012253271    0.1657164679146247 Co
   0.1624219475023506    0.8233017833548130    0.5140497420885011 Co
   0.1692069146089798    0.8328878688656616    0.8300929209867568 Co
   0.5079651351664183    0.1613231964901119    0.1672137913437376 Co
   0.5060354545888543    0.1611035261006009    0.5040608583454453 Co
   0.4997564078946556    0.1648594479574421    0.8388194518621289 Co
   0.4988324389975555    0.4968092997338771    0.1675631742434738 Co
   0.4999280402749016    0.5033492544062993    0.4950504917820240 Co
   0.5051623834459005    0.4945885846914262    0.8302612026408973 Co
   0.5032839622815850    0.8392451155619192    0.1556034387548822 Co
   0.4997484015598226    0.8306023549864519    0.5015207401421837 Co
   0.4985717241810744    0.8277486099341771    0.8378479630799881 Co
   0.8328205106150026    0.1635008272292602    0.1686477153672080 Co
   0.8374714857199500    0.1645372900551522    0.4967353729004886 Co
   0.8379377683339877    0.1622186482797613    0.8322680795346243 Co
   0.8357677402134055    0.4934191093054762    0.1679033005234911 Co
   0.8382305148752115    0.4921261704064035    0.5008539921535315 Co
   0.8271894362380769    0.5067994865159158    0.8291743350410384 Co
   0.8371508407518718    0.8383520238080585    0.1596956265422394 Co
   0.8342565833595086    0.8284789311280305    0.5039447993399916 Co
   0.8213288576901769    0.8377348936374431    0.8412278962348043 Co
   0.2510669269550801    0.2464295174507812    0.2590029607430461 O
   0.2582753211875233    0.2452127906655347    0.5911376245514771 O
   0.2527768649519953    0.2527425094236936    0.9240861821491927 O
   0.2570044619940073    0.5912760892512502    0.2436012243576006 O
   0.2632036693482034    0.5803675518217313    0.5801805158477565 O
   0.2582138502668813    0.5861633378473989    0.9163773048394187 O
   0.2452484510988561    0.9222474428246740    0.2599046901880426 O
   0.2475690668963882    0.9167264671434643    0.5971028505771320 O
   0.2487812661066196    0.9269768177518858    0.9191321861704658 O
   0.5818642224602428    0.2552743917230546    0.2591323583213335 O
   0.5804013614191272    0.2573751529334694    0.5887957743011217 O
   0.5806729517185056    0.2558224370326021    0.9258483380444535 O
   0.5882678533635876    0.5738494612523181    0.2632724472412969 O
   0.5895247648933530    0.5856151604383236    0.5858110458724192 O
   0.5827288309280620    0.5832556969737048    0.9249651614182866 O
   0.5854299833588179    0.9223401459000329    0.2485268938449552 O
   0.5867976580914627    0.9183777252152621    0.5871479008957367 O
   0.5993790939585273    0.9186563039090649    0.9101476552757651 O
   0.9195410735911138    0.2583711247393749    0.2503294610981713 O
   0.9124595814027192    0.2512835815616901    0.5920678231389017 O
   0.9214116741356065    0.2435397826975543    0.9256206555252617 O
   0.9338628009710417    0.5788330528419365    0.2483678570682795 O
   0.9158176049251362    0.5882282486656526    0.5892169647473087 O
   0.9248220371051175    0.5790867417449281    0.9251380064249957 O
   0.9289094078848171    0.9232302044615500    0.2484132319065338 O
   0.9101250390932589    0.9208014803492937    0.5957087877246148 O
   0.9254504354585447    0.9145717484226874    0.9189350193276421 O
   0.0907845380066585    0.0702914734224829    0.0768730576966555 O
   0.0840427533308953    0.0845563889936246    0.4093611580888063 O
   0.0765308895637752    0.0836883145377532    0.7462441241438430 O
   0.0866631614474843    0.4086382793465243    0.0784810661231548 O
   0.0776325229617234    0.4077148144265155    0.4197644391411448 O
   0.0835061378118875    0.4139159447003374    0.7471940341469031 O
   0.0820441854498849    0.7498345213862504    0.0722446996991599 O
   0.0920440747834924    0.7353616610155437    0.4119550273176648 O
   0.0782152111168878    0.7538280148422150    0.7445063649729021 O
   0.4184437264769749    0.0839873233894338    0.0704923267410609 O
   0.4214057958133812    0.0798098948582035    0.4041835630731889 O
   0.4047407702526608    0.0841711899173943    0.7537896466640496 O
   0.4128809013968278    0.4106845939763772    0.0818301417966512 O
   0.4138123476534841    0.4110374560852207    0.4123305633101043 O
   0.4293841037989917    0.4041355225523190    0.7449758708332317 O
   0.4129775228302693    0.7469917547187663    0.0786485654296867 O
   0.4067658527860311    0.7502821658015307    0.4120945898332433 O
   0.4128999206991323    0.7476600657699051    0.7491977845641332 O
   0.7468176805541431    0.0704385424629516    0.0888346363885454 O
   0.7394907690728681    0.0765632691395244    0.4218671393960830 O
   0.7393422689337610    0.0862275012318819    0.7494095205823458 O
   0.7469531633909033    0.4123661591993590    0.0825844339006301 O
   0.7473692765427634    0.4107318945263859    0.4144457199093144 O
   0.7473810729852863    0.4143585956739886    0.7459199326261801 O
   0.7530326306611976    0.7456534460610927    0.0745267765576987 O
   0.7457597032640857    0.7459446276130286    0.4172044131327108 O
   0.7495879792648229    0.7435704323977880    0.7526156938584619 O
