Li20 Co27 O54
1.0
  14.1209132099999994   -4.2168848700000003   -0.0134986200000000
  14.1209132099999994    4.2168848700000003   -0.0134986200000000
  12.8685137100000002    0.0000000000000000    7.1821868699999998
Li Co O
20 27 54
direct
   0.0078047282162588    0.0011143006148380   -0.0109370526324622 Li
   0.0049989596616229    0.0023879817055145    0.6641148001383159 Li
   0.0024368948596297    0.3195824980678146    0.0093727187354544 Li
   0.0008567388375784    0.3311734862423173    0.3334829206819677 Li
  -0.0009229374864799    0.6643170376197659    0.0080173184330183 Li
  -0.0039004999520861    0.6729016174439970    0.3285193376882146 Li
  -0.0095837003878621    0.6751734248372965    0.6722410897219983 Li
   0.3279536468740792   -0.0007649718374104    0.0098295756522212 Li
   0.3416213386517606   -0.0040873942266398    0.3270496334472182 Li
   0.3393783982053587    0.3307342107731562    0.3276163646772629 Li
   0.3403490748685230    0.3328336282486854    0.6577344616923935 Li
   0.3344069876941895    0.6562269136828349    0.6757026232652693 Li
   0.6676607145115653    0.9957949563079670    0.0004682640406053 Li
   0.6671054507307757   -0.0016967661446818    0.3325988652355996 Li
   0.6637035312281372    1.0039677791301265    0.6696903090909202 Li
   0.6515707390560933    0.3395941471762584    0.0103002148793374 Li
   0.6688395494873192    0.3358577794804424    0.3315729113060543 Li
   0.6654406361547902    0.3327226614246503    0.6648966626939286 Li
   0.6667760275687594    0.6631193822495283    0.3358986273596546 Li
   0.6661804625907223    0.6675689641135202    0.6684203766189435 Li
   0.1597481331063158    0.1651161036334271    0.1800844398380063 Co
   0.1603262570315736    0.1746986252522342    0.4970295744213525 Co
   0.1722070214412391    0.1700065579280519    0.8263568951585045 Co
   0.1741268869413417    0.4905305313513554    0.1687740324446657 Co
   0.1725751923420708    0.4915885973147991    0.5036650792626667 Co
   0.1632345530401613    0.5031012190690011    0.8344115725072175 Co
   0.1656998160019028    0.8363536082591420    0.1617843654767521 Co
   0.1689253097298485    0.8278898581942995    0.4986667388101150 Co
   0.1657177331518788    0.8279728752981125    0.8390238602714545 Co
   0.4989245561975760    0.1681985804508613    0.1634870658284799 Co
   0.4973210920925732    0.1632766466903402    0.5072221139064143 Co
   0.5075776400432868    0.1621670461804349    0.8317174102706084 Co
   0.4879990757485443    0.5070640668049002    0.1719135784756675 Co
   0.4983848500320798    0.5013166699561776    0.4994123900980905 Co
   0.4965469297539238    0.5106320275417728    0.8250884904735152 Co
   0.4953451075231484    0.8372537919562913    0.1686822432931514 Co
   0.4970087001442214    0.8360553221363756    0.5018177453571322 Co
   0.4947200669386082    0.8400375408965308    0.8290135928111307 Co
   0.8351537565195718    0.1680388304174940    0.1671774778405518 Co
   0.8314146912137160    0.1565514075729240    0.5132970572460761 Co
   0.8297973735243904    0.1740259993371110    0.8335869811952024 Co
   0.8346519054905602    0.5059359923103619    0.1606520575673577 Co
   0.8348748612439680    0.4971765785934825    0.4987902925099535 Co
   0.8389174291618325    0.4993077776404946    0.8282733894225229 Co
   0.8297360219294210    0.8330725899985003    0.1754454833694905 Co
   0.8392551197245988    0.8322591033631757    0.4973878283885300 Co
   0.8379358578929139    0.8283726048703637    0.8344100872457829 Co
   0.2588589580552225    0.2445086531230452    0.2522717539952901 O
   0.2546931434028377    0.2485109426300935    0.5913098911395235 O
   0.2482130030474967    0.2550826828094049    0.9244431804436378 O
   0.2503078422270882    0.5939144192889251    0.2524815443077661 O
   0.2623323185539366    0.5778773777825486    0.5850962242983538 O
   0.2553829335752323    0.5771525265763888    0.9284292503632021 O
   0.2610957313605115    0.9187647625891543    0.2490505151200406 O
   0.2471630780162195    0.9206496518778402    0.5892977492265786 O
   0.2554907526603939    0.9177453638887938    0.9181209886184738 O
   0.5857419003009831    0.2571844324362085    0.2497823971588869 O
   0.5856881539861969    0.2579161279301919    0.5833215212720536 O
   0.5838879235169387    0.2480877033826895    0.9331806892440309 O
   0.5977985209758474    0.5766210037868186    0.2503192680673634 O
   0.5888694287059132    0.5899188113629652    0.5813743608777880 O
   0.5861375807341279    0.5818028337629649    0.9217447080431910 O
   0.5828244632905220    0.9178902728838185    0.2552971706660812 O
   0.5821969740608631    0.9237014920846469    0.5880482391989729 O
   0.5865707045280026    0.9244311512545424    0.9183000814275473 O
   0.9217889543113548    0.2449335436004940    0.2587884737241957 O
   0.9113222893562477    0.2560065582689269    0.5899119404893343 O
   0.9220295384976853    0.2563336618622707    0.9146035003470422 O
   0.9045768617885620    0.5922258834531900    0.2579894989212711 O
   0.9108417524339356    0.5954844156504466    0.5836034691252672 O
   0.9207595958313683    0.5829863739399452    0.9274287634995404 O
   0.9187900739715561    0.9214455165225116    0.2527364536360812 O
   0.9219597157333732    0.9220036014023905    0.5846513132120500 O
   0.9185258920116273    0.9179079913199217    0.9224003527799695 O
   0.0812639366542074    0.0767878687181452    0.0837464663640856 O
   0.0772655750528736    0.0738492277542124    0.4177954490664862 O
   0.0791698252744209    0.0830562305042258    0.7440476323062321 O
   0.0844287628340185    0.4109227005683454    0.0778829535850149 O
   0.0793083245248478    0.4143999826966547    0.4095986293540446 O
   0.0764250919508794    0.4172215480543528    0.7444649428206092 O
   0.0814303709101968    0.7454109349365488    0.0788094463003831 O
   0.0814605818027379    0.7421536269642821    0.4143274576009670 O
   0.0823740232766567    0.7429472132893415    0.7491539153476324 O
   0.4102883263921451    0.0748736730128934    0.0870318752460996 O
   0.4223430727007317    0.0788199174267314    0.4038567917539081 O
   0.4109226362639961    0.0759062428246491    0.7574980122840399 O
   0.4099229805672243    0.4117807126274571    0.0814894387979911 O
   0.4104332505587414    0.4208006322115202    0.4059746810723711 O
   0.4193657797141205    0.4119645139879056    0.7446967930549290 O
   0.4287071813001707    0.7421008482622274    0.0709092466459605 O
   0.4106094502502771    0.7524307318630703    0.4084633138515569 O
   0.4209024453304068    0.7436025774251751    0.7421135651903192 O
   0.7421355310723793    0.0772355197547440    0.0823432130626614 O
   0.7525292787711860    0.0782100610675025    0.4109826615079512 O
   0.7496846948460005    0.0789545908166664    0.7529074031393096 O
   0.7522129838427437    0.4057523392666694    0.0870079606630532 O
   0.7401024358945876    0.4153278224802044    0.4177376674217393 O
   0.7424245032590178    0.4122135712779142    0.7503415331843238 O
   0.7483839955211922    0.7512741908765401    0.0758484400309951 O
   0.7373765924022339    0.7510301309578170    0.4157215838184367 O
   0.7466898534235731    0.7428842188663525    0.7507497170584183 O
