Li20 Co27 O54
1.0
  14.1209132099999994   -4.2168848700000003   -0.0134986200000000
  14.1209132099999994    4.2168848700000003   -0.0134986200000000
  12.8685137100000002    0.0000000000000000    7.1821868699999998
Li Co O
20 27 54
direct
   0.0054653942398609    0.0008047176549727   -0.0051022900006552 Li
   0.0065509041840776    0.0003696115161164    0.3255868206799948 Li
   0.0029808045441436   -0.0002506429155179    0.6643977827637454 Li
  -0.0021244894342790    0.3360194694403029   -0.0005821210676326 Li
  -0.0025596626958287    0.3337074859641326    0.6658136049730224 Li
   0.0097391105919046    0.6647452200587036    0.3289458565013919 Li
  -0.0014733290630864    0.6678611678895772    0.6652580785418016 Li
   0.3362886127063349    0.0061449799615270   -0.0137599800799626 Li
   0.3346282490543556   -0.0042660781343652    0.3346061319351777 Li
   0.3345878411511629    0.0008875198850718    0.6651325708190863 Li
   0.3358640548636728    0.3318706669998525    0.6671203601813704 Li
   0.3349679581311963    0.6599156102069944    0.0039991594121974 Li
   0.3375610842374042    0.6582787693813470    0.3396623716596035 Li
   0.6716855545724407    0.0048347274049278    0.3277358529382292 Li
   0.6589716631999678    1.0076059060983069    0.6651327149981466 Li
   0.6694204939059355    0.3250410648345131    0.0085875033594517 Li
   0.6682849621223420    0.3319113319194306    0.3299141656772884 Li
   0.6627456547764387    0.3396262547615356    0.6651270779448754 Li
   0.6623117652715509    0.6703946254120688   -0.0007930832649218 Li
   0.6634134448693328    0.6644376458253983    0.6697590042356312 Li
   0.1695120048480051    0.1650431079049514    0.1661446050707092 Co
   0.1701215473503017    0.1651835253360056    0.4996818153967211 Co
   0.1709439129094706    0.1662911827784332    0.8300119335379077 Co
   0.1666568280570028    0.4944329893639585    0.1753762519544044 Co
   0.1642700211528894    0.5062452904195890    0.4967738590656801 Co
   0.1739886070802764    0.5056387035829959    0.8238593040789126 Co
   0.1663607611917172    0.8346992335402705    0.1680820941025785 Co
   0.1679093229976973    0.8325099763652803    0.4995546590240750 Co
   0.1618168136715996    0.8356048682396244    0.8358572468110211 Co
   0.5039965141314430    0.1610424755364944    0.1659754919020602 Co
   0.4952456954118292    0.1728100872541435    0.5013422706086117 Co
   0.4949083022465440    0.1671266330021049    0.8353837188361545 Co
   0.5004548498924318    0.5034250661133057    0.1580128184837401 Co
   0.4995439667950826    0.4982047982655459    0.4995232143603216 Co
   0.4986367186444683    0.5030872381496065    0.8344057271276257 Co
   0.5048725019070462    0.8256504702026808    0.1742039751998478 Co
   0.5030622576847983    0.8283825744861278    0.5025873712349805 Co
   0.5061222032343732    0.8265715940889642    0.8339764815886032 Co
   0.8371904610804488    0.1600304771707591    0.1695385371116909 Co
   0.8298677233528061    0.1795388267211504    0.4948892034904928 Co
   0.8352556054478201    0.1730957810583165    0.8225478831339083 Co
   0.8306185090347484    0.5025465203532377    0.1654816769118582 Co
   0.8330741937300146    0.4956578692487543    0.5009314661772605 Co
   0.8235735050289950    0.5053241120071581    0.8378157152592473 Co
   0.8281746018777325    0.8405532641442366    0.1668894888873707 Co
   0.8344839166085680    0.8344017996635755    0.4995162069789920 Co
   0.8284893884603790    0.8350971310317887    0.8372084257189232 Co
   0.2534068675288106    0.2524017156796941    0.2537453873180646 O
   0.2538614231681764    0.2494078252952955    0.5897507950373263 O
   0.2458637519958017    0.2606761831057070    0.9200003412008444 O
   0.2419491971687842    0.5868782541278915    0.2618329784235126 O
   0.2491008790083306    0.5871903517675414    0.5895623040388089 O
   0.2595517938431102    0.5843670721001581    0.9159672301326147 O
   0.2595530799420651    0.9096454230792890    0.2570989592210834 O
   0.2546215033682102    0.9188878070550814    0.5903866928277497 O
   0.2520455951013927    0.9166790177628072    0.9235282158848126 O
   0.5842229950931310    0.2580950701060172    0.2536123441504617 O
   0.5927503471194095    0.2383505778638744    0.5946751907689296 O
   0.5798179098692930    0.2535879288734749    0.9239967156940921 O
   0.5906215952434855    0.5845329433151584    0.2512030143388185 O
   0.5915981121579406    0.5834071743226243    0.5839359956642252 O
   0.5840157621347648    0.5885334337229922    0.9238712511986985 O
   0.5781617758367311    0.9278878258775700    0.2533189535468355 O
   0.5853387744815856    0.9205653210163668    0.5886166986456570 O
   0.5869973830744537    0.9242063644853531    0.9180812778737464 O
   0.9201990792303713    0.2628845599585540    0.2425705880005041 O
   0.9223204474079711    0.2526377284373606    0.5848823443985900 O
   0.9280848676662928    0.2477552737667591    0.9159167188044494 O
   0.9191850788227225    0.5800973677377969    0.2554867816199469 O
   0.9242391775314864    0.5866511162799705    0.5842370525012323 O
   0.9157094519155859    0.5939970768712122    0.9192816753877074 O
   0.9113138400792623    0.9190164450675046    0.2634775470974116 O
   0.9200657765820223    0.9209589491577296    0.5864469054236818 O
   0.9182900603612993    0.9222423913706157    0.9182448543650411 O
   0.0700350083305185    0.0902221021219212    0.0786053133855495 O
   0.0747356723255429    0.0808598097542618    0.4160520596415082 O
   0.0792576549987628    0.0826152052481063    0.7418588874519242 O
   0.0714546301277540    0.4190118560471821    0.0824474480210067 O
   0.0710745508255407    0.4111901136523595    0.4222052541033803 O
   0.0901460604683609    0.4041630793726576    0.7440518096972808 O
   0.0862793720289518    0.7416188463796609    0.0789834539157321 O
   0.0846225252567227    0.7474706306091244    0.4063310182284556 O
   0.0890692958157075    0.7419514596435559    0.7408735543884357 O
   0.4151332510057695    0.0798436621380887    0.0744112765993724 O
   0.4192078957386830    0.0729007339063611    0.4123011363389406 O
   0.4083261098793415    0.0741667689696379    0.7578914010557961 O
   0.4181246418529654    0.4158193855081753    0.0726673361361390 O
   0.4118886081606384    0.4127722144894554    0.4182127077879984 O
   0.4014144020264921    0.4177511169540575    0.7533476739316113 O
   0.4142048407819359    0.7433104778314330    0.0822328160254229 O
   0.4063387030716251    0.7518344882304757    0.4129361736388475 O
   0.4192691524464366    0.7461659369406108    0.7455453126140168 O
   0.7449668437255242    0.0761207974096337    0.0841807684307242 O
   0.7522778863225010    0.0766107317494761    0.4135980723947575 O
   0.7421300687698733    0.0877926226353445    0.7405556481549677 O
   0.7441823967776489    0.4169251894948115    0.0760492265720069 O
   0.7452042214093234    0.4090565927654252    0.4177146108859229 O
   0.7529760897909066    0.4151056116925914    0.7380571479647072 O
   0.7528195278738010    0.7476806414099866    0.0718466853084272 O
   0.7505709321341447    0.7451342561826222    0.4098834728477989 O
   0.7534648926176717    0.7476555533652030    0.7374374649107835 O
