Li20 Co27 O54
1.0
  14.1209132099999994   -4.2168848700000003   -0.0134986200000000
  14.1209132099999994    4.2168848700000003   -0.0134986200000000
  12.8685137100000002    0.0000000000000000    7.1821868699999998
Li Co O
20 27 54
direct
   0.0002568121502160    0.0062509422731925   -0.0079894709415313 Li
   0.0061171248557301   -0.0002112608967912    0.6602026400865588 Li
  -0.0007882840358911    0.3420710572589359   -0.0059683907765494 Li
  -0.0058085518474350    0.3372988836715188    0.3307962034462942 Li
  -0.0041893205196717    0.6694530271796372    0.0006467411916301 Li
   0.0001698202903503    0.6660951882687963    0.3318633959561865 Li
  -0.0006208097695997    0.6597077899338271    0.6724806134839317 Li
   0.3292220484244735    0.0056042997924736   -0.0015696473871103 Li
   0.3287812917221655    0.0028670639002166    0.3345166182062693 Li
   0.3263298727149003    0.3365298576994703    0.3380749896090087 Li
   0.3360631317881704    0.3327952082068836    0.6640088458106034 Li
   0.3334555622222675    0.6688763763433350    0.6658142008780669 Li
   0.6568293740287477    1.0011276801275870    0.0078144951517021 Li
   0.6759664176266535   -0.0036946642111712    0.3284465430664467 Li
   0.6688267636666592    1.0005136776532462    0.6643121306400394 Li
   0.6717627887750303    0.3356162363406333   -0.0090782193266278 Li
   0.6711897344574067    0.3203282479182143    0.3394362711288145 Li
   0.6658561642238827    0.3314373351716983    0.6709055539442222 Li
   0.6670105953031558    0.6620442047945603    0.3347617641065908 Li
   0.6663128058342823    0.6626231739579750    0.6723808354692111 Li
   0.1668240531491063    0.1738782283385845    0.1605480427568605 Co
   0.1552738591765219    0.1708108482858615    0.5042726325295577 Co
   0.1629120288068691    0.1738554075955616    0.8290992666263780 Co
   0.1620447584720566    0.4930155594900117    0.1753683789598454 Co
   0.1701860826355581    0.5030453482622059    0.4934858086918725 Co
   0.1662840372945364    0.5041459166867002    0.8274964010992406 Co
   0.1742849035735738    0.8333853079911286    0.1610576781896131 Co
   0.1619150636684698    0.8374737556386536    0.4993685843103483 Co
   0.1637955088989896    0.8247490312875443    0.8384719162783514 Co
   0.4941893710853382    0.1622737464282766    0.1748811646373495 Co
   0.4971430499418332    0.1755711555375715    0.4926062872774764 Co
   0.4874901348103665    0.1702668525269899    0.8427126828202562 Co
   0.5061073398961086    0.4911318939045515    0.1709523107081322 Co
   0.5031205016307011    0.5013475815420345    0.4994358315366759 Co
   0.5011648594679350    0.5011181983010915    0.8301201105714764 Co
   0.5021011783968130    0.8286287154827633    0.1701208752375175 Co
   0.4970794322048092    0.8320503617458751    0.5016811581648429 Co
   0.5025728974851463    0.8378261488771824    0.8269492600783992 Co
   0.8323585432569920    0.1644560661555473    0.1663468198346898 Co
   0.8366099417362532    0.1677600240905675    0.4979611714118212 Co
   0.8317064531269678    0.1763833528156040    0.8279001387789995 Co
   0.8262959898573523    0.5058439843159098    0.1721601885746900 Co
   0.8344677023821907    0.5049109486487593    0.4919825329427767 Co
   0.8284861554965917    0.5045033951898632    0.8322634866360856 Co
   0.8329123600300486    0.8388123797079388    0.1611717136802223 Co
   0.8369837623455114    0.8278012006963089    0.5000671280324415 Co
   0.8269676204324752    0.8400509110468217    0.8299957849819911 Co
   0.2545018732426401    0.2486877249892427    0.2603000782771647 O
   0.2593913229595254    0.2573784293882138    0.5790633256121970 O
   0.2489066699675240    0.2522963637810108    0.9254451594842131 O
   0.2530445850142882    0.5885143409174473    0.2540580586064709 O
   0.2531364941380853    0.5830829310950705    0.5879392292305899 O
   0.2536113245461856    0.5826307207531700    0.9261044242638250 O
   0.2543521919971045    0.9241928174475528    0.2543312958689565 O
   0.2498562435165940    0.9271232814241125    0.5834327449603808 O
   0.2526952598832571    0.9211247050935244    0.9190587831045232 O
   0.5864589699478423    0.2565628724696382    0.2498735895165400 O
   0.5861533213027121    0.2520563885774124    0.5855438242251303 O
   0.5877864883598177    0.2487041890851477    0.9233068780615904 O
   0.5842635440229880    0.5978580407309096    0.2474048382250405 O
   0.5861804777350430    0.5877527313129121    0.5859743800192118 O
   0.5955225347548518    0.5886258923965058    0.9139712791623864 O
   0.5836820344482764    0.9220772346462184    0.2537302511731989 O
   0.5899398442205327    0.9173307685059493    0.5933250263859030 O
   0.5895658895502259    0.9120226252629370    0.9238263543716095 O
   0.9208011541336119    0.2479085614270185    0.2565640010033077 O
   0.9181291043580655    0.2513159679655690    0.5942283002611514 O
   0.9318606676341670    0.2493215158423675    0.9142987096709585 O
   0.9235308759651317    0.5990784564962298    0.2410109679943231 O
   0.9244650707095279    0.5847520778521931    0.5871382474083504 O
   0.9163667019219333    0.5900472035165913    0.9179557789846842 O
   0.9163378748391398    0.9163340941925113    0.2582151721904088 O
   0.9247829828579723    0.9151232132378955    0.5857888427238834 O
   0.9237266252025492    0.9234029719976781    0.9096480181017274 O
   0.0799975811579106    0.0773699085946672    0.0864933890290328 O
   0.0766319792849557    0.0836937867429358    0.4153651937872116 O
   0.0791578600139934    0.0753744096010178    0.7490223283976458 O
   0.0778999233327304    0.4189674910679085    0.0762553513631042 O
   0.0691265731187234    0.4155944370945548    0.4219412368782503 O
   0.0824044483125657    0.4095832539895871    0.7457924231307458 O
   0.0693454594394369    0.7457278244093455    0.0929002610261059 O
   0.0791767169197336    0.7402893996734778    0.4190753550657130 O
   0.0804616096930930    0.7445534260370876    0.7495153597771712 O
   0.4140489054354086    0.0795470062082501    0.0799994021858832 O
   0.4161099642255668    0.0818124239697024    0.4072653744541870 O
   0.4049189647363839    0.0768568796763565    0.7590841387629436 O
   0.4184617686338755    0.4138772977298465    0.0705699250817075 O
   0.4186107750872397    0.4086382793674853    0.4161726355127846 O
   0.4135440150132979    0.4097536670931621    0.7470510727239800 O
   0.4030756900904977    0.7523579986986464    0.0830984625707398 O
   0.4128007184523271    0.7413988980758082    0.4173823879101561 O
   0.4099658631503984    0.7497048083783470    0.7506001074324778 O
   0.7475896908526786    0.0831064323321034    0.0801482030263673 O
   0.7468521884029133    0.0843564718964147    0.4071755846156844 O
   0.7463793081970904    0.0750828213611501    0.7534199272296070 O
   0.7529433619016506    0.4072426280298714    0.0781072031491512 O
   0.7442677038513218    0.4072387232388758    0.4213376383229728 O
   0.7517456941173992    0.4170104186946690    0.7406511851260895 O
   0.7419581143303710    0.7435050621013607    0.0872834653038026 O
   0.7503789767037169    0.7451883721841659    0.4106215242446261 O
   0.7471469042835899    0.7438856386013786    0.7491038334397909 O
