Li20 Co27 O54
1.0
  14.1209132099999994   -4.2168848700000003   -0.0134986200000000
  14.1209132099999994    4.2168848700000003   -0.0134986200000000
  12.8685137100000002    0.0000000000000000    7.1821868699999998
Li Co O
20 27 54
direct
   0.0014817752648575   -0.0062595514576715    0.0089330523028475 Li
  -0.0115456584201244    0.0080807725811823    0.3337075050926530 Li
   0.0029398408994223   -0.0018875466553720    0.6643431032870746 Li
   0.0112269263171143    0.3226046783082087    0.0019766732417414 Li
   0.0076157874415095    0.3343640603074885    0.6579123458122321 Li
   0.0038689019306932    0.6651459577077532    0.3315074240994261 Li
   0.0046434070853169    0.6685085418815711    0.6589615798197229 Li
   0.3382567295520878   -0.0051557873029725    0.0013009916489387 Li
   0.3347475655215577   -0.0040968621830748    0.3354841333695538 Li
   0.3287058170874528    0.0062271068023518    0.6640770195756436 Li
   0.3294885677537314    0.3314385362445117    0.6676717392851562 Li
   0.3286189904218992    0.6609775785798544    0.0089786797373489 Li
   0.3369626220578225    0.6675878571825660    0.3272448794517573 Li
   0.6775952949629205   -0.0092928267764970    0.3336758240041153 Li
   0.6746945195754606    0.9959270335549567    0.6614612660589170 Li
   0.6648812627507117    0.3359676168766318    0.0015416884767873 Li
   0.6640469663151796    0.3260589259707819    0.3370020183035438 Li
   0.6687139007099776    0.3287571753044291    0.6709617779178976 Li
   0.6716640956160534    0.6706337781672423   -0.0071584942479097 Li
   0.6728642251120007    0.6638415788779792    0.6617875798761403 Li
   0.1621614730065963    0.1739021114894692    0.1633503216250392 Co
   0.1631741718882381    0.1615434545352991    0.5087619995804586 Co
   0.1636500058606424    0.1720086622998023    0.8298039771405153 Co
   0.1661287897026451    0.5059106018072340    0.1587746442146445 Co
   0.1678573705541939    0.4997023443471768    0.4982980759033834 Co
   0.1598862977190830    0.5014941191141540    0.8334614264825932 Co
   0.1636352070354303    0.8390399210965115    0.1640421131006267 Co
   0.1637387812625660    0.8314284723211348    0.5046539219584921 Co
   0.1668360481391479    0.8309575844604542    0.8329447517716696 Co
   0.4987907663119930    0.1618793976685884    0.1706906088029232 Co
   0.5032598125468541    0.1660215676302635    0.4950398863262738 Co
   0.4921629990167417    0.1653640617379337    0.8455491784339743 Co
   0.5011388173690828    0.4971119142171964    0.1698457966288474 Co
   0.4998110562746600    0.4982595934690340    0.5040475521201695 Co
   0.4971193762299929    0.5064738558833448    0.8284919440110811 Co
   0.4980041440567084    0.8387788732093407    0.1617263078062963 Co
   0.5113003874585653    0.8226881993939239    0.4974263723154224 Co
   0.4973711757302102    0.8318299567046126    0.8347097577606593 Co
   0.8310876329276398    0.1646841156929038    0.1703230387339595 Co
   0.8357262919237146    0.1718303649222734    0.4948174097107768 Co
   0.8421165966034664    0.1601593332141896    0.8311185512250537 Co
   0.8303799625116529    0.5036780023056021    0.1603773950298277 Co
   0.8358321765547339    0.5016451618828597    0.4929534298227057 Co
   0.8335681044619757    0.4971617697145103    0.8350921705318225 Co
   0.8379118281799754    0.8303252320787305    0.1621149058152437 Co
   0.8393653507625695    0.8258632084854268    0.4984093807594769 Co
   0.8308677702285756    0.8352483036608362    0.8297638074824376 Co
   0.2515733270470280    0.2532481883435924    0.2545573098977587 O
   0.2530241235868011    0.2559610588525983    0.5826778912842815 O
   0.2491254831316670    0.2582720509394286    0.9145225699707632 O
   0.2607285758787939    0.5886187640728018    0.2494769437276418 O
   0.2551613997781975    0.5849719394913608    0.5891135910648970 O
   0.2583529451578737    0.5886002532071024    0.9170767939164740 O
   0.2599378842548203    0.9221401103067617    0.2463043313104381 O
   0.2541112122584602    0.9211688460269494    0.5862481327591417 O
   0.2457278251578381    0.9294397829744931    0.9206023042021226 O
   0.5811585242572940    0.2591494931575016    0.2516663809792596 O
   0.5804522679041771    0.2513026937705478    0.5939085679490553 O
   0.5972856261143671    0.2537440315994849    0.9090531615016917 O
   0.5851553102687409    0.5809846774588641    0.2601004957260161 O
   0.5835388704407207    0.5886318801723303    0.5906806728708935 O
   0.5851351502089296    0.5860177326407786    0.9179248369445762 O
   0.5806000519937127    0.9202921244852249    0.2612561591893829 O
   0.5925602275700798    0.9213199892457041    0.5845417888836388 O
   0.5806467812428089    0.9292818008067345    0.9158442306195771 O
   0.9128576288236053    0.2502541723541874    0.2638117866783841 O
   0.9222306310005437    0.2501932930190537    0.5871941769746262 O
   0.9147919834662154    0.2602690649058566    0.9207849118529831 O
   0.9138215422779616    0.5840097084629371    0.2578958187552650 O
   0.9245891055874513    0.5876427560675651    0.5816053965951451 O
   0.9217269118558182    0.5806412574434194    0.9273045158938534 O
   0.9240225036748478    0.9121508353205382    0.2597958493120009 O
   0.9254127034620239    0.9178802304707661    0.5858447423222412 O
   0.9143301161129389    0.9197461249063796    0.9278820100396806 O
   0.0802698216143945    0.0684496403424821    0.0927161525729473 O
   0.0757804392192635    0.0782300952336157    0.4205238903373444 O
   0.0832816471739638    0.0764820338126750    0.7419938034354626 O
   0.0790126544977904    0.4189572094944015    0.0745875094306431 O
   0.0836849588087109    0.4120205546359154    0.4115936389785301 O
   0.0793376607209002    0.4163451756499140    0.7457176477745568 O
   0.0766875664438593    0.7490978634661640    0.0769392367431476 O
   0.0785519168478611    0.7490361777150392    0.4121294716069496 O
   0.0774379751716673    0.7475027497050357    0.7474836859246602 O
   0.4070058771640714    0.0833447379341271    0.0836677930892609 O
   0.4116124773010209    0.0749336003695904    0.4220882847090777 O
   0.4125275172905996    0.0796662536015030    0.7513831361119738 O
   0.4114469674961769    0.4093829270865963    0.0877337280745589 O
   0.4123887977904619    0.4100529155247566    0.4110568012101158 O
   0.4194501937628857    0.4047280363539265    0.7494815421907646 O
   0.4203035243293721    0.7379363738472176    0.0805047090786182 O
   0.4220234488731439    0.7454149768968029    0.4076612767607112 O
   0.4142173685282191    0.7522083975031952    0.7451164042262896 O
   0.7453163211044632    0.0762831036645745    0.0895758112249330 O
   0.7504798804969328    0.0788477494172691    0.4105735323899244 O
   0.7422205707150651    0.0821480846003396    0.7506417614943183 O
   0.7412498727361210    0.4115526256490861    0.0862109373208312 O
   0.7485711546060161    0.4095731495367240    0.4106869893492501 O
   0.7589769031749585    0.4105571966778118    0.7389089947713059 O
   0.7415598474109076    0.7406881205428097    0.0915202138554295 O
   0.7441967129781448    0.7427245377223861    0.4174361366529237 O
   0.7446328975898528    0.7497820510651227    0.7452202882153406 O
