Li20 Co27 O54
1.0
  14.1209132099999994   -4.2168848700000003   -0.0134986200000000
  14.1209132099999994    4.2168848700000003   -0.0134986200000000
  12.8685137100000002    0.0000000000000000    7.1821868699999998
Li Co O
20 27 54
direct
  -0.0047475061619434    0.0080608845074955    0.3277856219963474 Li
  -0.0028009510825439    0.3312032955207988    0.0052353311524405 Li
  -0.0029948177981183    0.3388325939191024    0.3340142179581206 Li
  -0.0023107925723104    0.3385792680934110    0.6604905406779051 Li
   0.0076137549109169    0.6647813234673261    0.6623194119804301 Li
   0.3477864940951400    0.0021545940981174   -0.0157229625158663 Li
   0.3229602521308066    0.0019920243598534    0.3359042231672294 Li
   0.3325712068318202    0.3251072607016685    0.0087956529221776 Li
   0.3408496184270187    0.3215538874830989    0.3335467211712508 Li
   0.3319749507408355    0.3384624118598358    0.6664726716863619 Li
   0.3324950274684034    0.6688285106398936    0.0005264926647839 Li
   0.3356902460384562    0.6721501295613693    0.3282789017618540 Li
   0.3398512788549753    0.6616318641870020    0.6661127844550162 Li
   0.6795203536047104    0.9944629944263338   -0.0023819805776347 Li
   0.6629135183584818    0.0042077346154185    0.3371963014409785 Li
   0.6636856367079662    0.9983951278800118    0.6674997542821030 Li
   0.6669991922454881    0.3347801489812290   -0.0026913898747018 Li
   0.6665075131722985    0.3393162962389363    0.3258702596885580 Li
   0.6709999793320363    0.3195989962757960    0.6769657686370718 Li
   0.6687363055933422    0.6615674957965429    0.3361758761679187 Li
   0.1720589492576097    0.1693325314380766    0.1627215024379036 Co
   0.1566351371323240    0.1687600493931378    0.5092698926096121 Co
   0.1585193979497078    0.1725070423989927    0.8384073148092196 Co
   0.1642035998262789    0.5027306785814336    0.1654089064171645 Co
   0.1644749956314705    0.4999526050278197    0.5065478381028243 Co
   0.1604973163418679    0.5018395028155840    0.8354233222837593 Co
   0.1689898364050459    0.8292580451696684    0.1614565368911103 Co
   0.1547711737335713    0.8335565144250386    0.5092563596022105 Co
   0.1685955162165989    0.8317957749487923    0.8365840102840505 Co
   0.5069485513920271    0.1638698776796256    0.1660157614454262 Co
   0.5036193781002516    0.1543820380884162    0.5080236004831876 Co
   0.4994294038492129    0.1580243967150188    0.8360397067576731 Co
   0.5061828755171104    0.4970161193358547    0.1605474433623747 Co
   0.5030756876949336    0.5000601953376796    0.5002065584208412 Co
   0.5076522917208135    0.5039268651157333    0.8223737259454408 Co
   0.4966904589671758    0.8371242602775117    0.1637360337619386 Co
   0.5005304516192595    0.8403561050162534    0.4941713033754029 Co
   0.4903241565000758    0.8463996624582564    0.8326925193562477 Co
   0.8275740528238065    0.1689681833446918    0.1687196174187538 Co
   0.8260561352015802    0.1693818726857501    0.5051230009000279 Co
   0.8294759467386161    0.1700089506516312    0.8306479078478213 Co
   0.8334351693317542    0.5015351017112757    0.1649634920924520 Co
   0.8309206801334703    0.5071527299659992    0.4990746034123435 Co
   0.8419404563179247    0.4924358327214193    0.8342998512447314 Co
   0.8258486433425898    0.8355019533520560    0.1693102864045049 Co
   0.8340925795494414    0.8342629074192918    0.4991188232026401 Co
   0.8341208376171461    0.8283681310526521    0.8338534990528873 Co
   0.2471545124804226    0.2578550660526204    0.2512162328213255 O
   0.2591231286418641    0.2544756239717140    0.5835809992431068 O
   0.2601942520004016    0.2516579599727478    0.9178132429787194 O
   0.2546445213307724    0.5937307831503564    0.2481356599244662 O
   0.2595948572159032    0.5880462892874720    0.5795372358358282 O
   0.2453974277119810    0.5938509524912592    0.9228575781636552 O
   0.2523988228751095    0.9230525751628391    0.2509021297321635 O
   0.2578975991017152    0.9159192449155533    0.5884421219504868 O
   0.2561123237935693    0.9164918098823001    0.9177809344283964 O
   0.5931178649335895    0.2511725003921693    0.2524865005274513 O
   0.5769365664661675    0.2529463196788612    0.5931560663989057 O
   0.5956832198462058    0.2588884897567472    0.9074285569998815 O
   0.5936615013881423    0.5773322699559896    0.2532066658015304 O
   0.5923401612314982    0.5865862261943176    0.5825319933975007 O
   0.5846051181591205    0.5846772502311224    0.9267889562962941 O
   0.5862965342179070    0.9206081890392217    0.2534172907271663 O
   0.5891540345248272    0.9188224695450337    0.5862509380211397 O
   0.5781293063819829    0.9277816622784171    0.9253113024481863 O
   0.9094816929013322    0.2593149716864047    0.2568745233159219 O
   0.9153587685898534    0.2553445674104083    0.5927686314021881 O
   0.9242033104386146    0.2439503328479932    0.9264467560755324 O
   0.9206294487919000    0.5866205237036726    0.2500668989286789 O
   0.9180193798917458    0.5869875689957711    0.5904461301095970 O
   0.9249886359532254    0.5856352485979986    0.9175843895524862 O
   0.9242085973425650    0.9151448285272156    0.2570783114807069 O
   0.9179664488638470    0.9238985347147843    0.5851726513178024 O
   0.9200763393357265    0.9237274430361879    0.9161933742967894 O
   0.0716312097451063    0.0762543840817727    0.0888986158281746 O
   0.0780732811232781    0.0816860173671346    0.4102033433007978 O
   0.0818588780546404    0.0759511979453728    0.7497318286738768 O
   0.0883688846759104    0.4081028415815303    0.0747919422739882 O
   0.0826335021981029    0.4190819685336089    0.4059535358259391 O
   0.0903722976470606    0.4126894544450848    0.7342752422721319 O
   0.0699894607203723    0.7501575833539761    0.0834535381661600 O
   0.0893310910450446    0.7452840389774822    0.4075465039309802 O
   0.0784449913393446    0.7462298310273339    0.7479326706570111 O
   0.3990514032568510    0.0856661876061027    0.0832735167483274 O
   0.4073044359624334    0.0824806524088817    0.4160202303257195 O
   0.4145792965010732    0.0789560932909055    0.7461793933252183 O
   0.4059354962978640    0.4114695098844341    0.0844209509238849 O
   0.4059881628478926    0.4168674740475335    0.4118069057369376 O
   0.4061311020894343    0.4067406051078044    0.7598684928607532 O
   0.4054073059211681    0.7549440520209288    0.0769790848742188 O
   0.4123458328439933    0.7480275272902632    0.4120019681071709 O
   0.4075688089374072    0.7466584393133264    0.7462375492544459 O
   0.7477876907664315    0.0778717661186209    0.0800525100372071 O
   0.7360103985624431    0.0840408908289220    0.4246330272761947 O
   0.7475452288356392    0.0833439941426751    0.7446248395065757 O
   0.7463779784410066    0.4271958783335683    0.0688009248259658 O
   0.7474158907088080    0.4169689612203686    0.4127309442770272 O
   0.7465788166479931    0.4144434383976130    0.7446112612922171 O
   0.7484702283398523    0.7423600072691845    0.0811411157240551 O
   0.7523094500487519    0.7402422922604917    0.4135063033013275 O
   0.7542194519128091    0.7395004747262992    0.7450665673552191 O
