Li20 Co27 O54
1.0
  14.1209132099999994   -4.2168848700000003   -0.0134986200000000
  14.1209132099999994    4.2168848700000003   -0.0134986200000000
  12.8685137100000002    0.0000000000000000    7.1821868699999998
Li Co O
20 27 54
direct
  -0.0118197328992775    0.0033437909100649    0.3410364421688456 Li
  -0.0040827880118289    0.0020590926337770    0.6683584298355589 Li
   0.0015153934211277    0.3318987558676448    0.0011756648613285 Li
   0.0116962596123373    0.3249668794833532    0.6658519372363423 Li
  -0.0027996009195190    0.6700127288834832   -0.0010890284226140 Li
   0.3329311189798210    0.0029350723023867   -0.0012643747262744 Li
   0.3294633376037023    0.0063216940335983    0.3292822125222172 Li
   0.3401676063294610   -0.0000274182532125    0.6565782045295174 Li
   0.3336909176408505    0.3319009869874798    0.3300586109316139 Li
   0.3370326979223752    0.3282278361788461    0.6719919411983423 Li
   0.3309864833699478    0.6722477537760677   -0.0092395830986944 Li
   0.3181771877483183    0.6658186128422819    0.3426473217502472 Li
   0.3292003489451731    0.6600319292542747    0.6741670143204320 Li
   0.6710894116104045   -0.0087347622951627    0.3393037311762569 Li
   0.6663511827321396    0.9927164239872459    0.6764032477676001 Li
   0.6689899126863746    0.3310677600105258   -0.0011264054441621 Li
   0.6723138605743971    0.3339476455909006    0.3300084075660822 Li
   0.6650212864788926    0.3430253446627641    0.6578440897844409 Li
   0.6740253746454430    0.6596105805433984    0.0003026872446381 Li
   0.6740426772418492    0.6596842700593933    0.6654842985578671 Li
   0.1567277422706849    0.1736924277877290    0.1692048011136548 Co
   0.1689679195014690    0.1725147879095216    0.4936016718316153 Co
   0.1779153196988789    0.1663835481932410    0.8259172675763564 Co
   0.1744831672149939    0.4958271159692810    0.1684685080120086 Co
   0.1663888137450140    0.4976480206205590    0.5052188751051465 Co
   0.1657796021017195    0.5029474718325676    0.8322096931141043 Co
   0.1676473369831878    0.8361432290491966    0.1658128963805363 Co
   0.1684666460501474    0.8212874461764361    0.5146636650322179 Co
   0.1743469338837128    0.8298207515786196    0.8322855932805596 Co
   0.4951657892923929    0.1658827964935506    0.1719460141200899 Co
   0.4993565865054480    0.1654293607551038    0.4977803158283740 Co
   0.5011757788073219    0.1607859122239886    0.8338686013804528 Co
   0.5145205756767490    0.4849701528989846    0.1675915704961687 Co
   0.4966950002471061    0.5035365261345442    0.5006389773650386 Co
   0.4991343987186506    0.5031479185187695    0.8260636004091999 Co
   0.5070379838901720    0.8416963780099637    0.1535727350918139 Co
   0.4989296297052150    0.8305240524485528    0.5062786436667398 Co
   0.5013523388015612    0.8359904060559137    0.8357643961234349 Co
   0.8268152351087737    0.1678747001244880    0.1685583629017588 Co
   0.8301621559159525    0.1582002793430416    0.5095629567893869 Co
   0.8406475002064220    0.1683184703555899    0.8267324797960571 Co
   0.8197415243699699    0.5044679959804383    0.1748573814705744 Co
   0.8360188555274196    0.5058822107745827    0.4901461321382104 Co
   0.8319942535507849    0.5053650669217884    0.8285349880188470 Co
   0.8326036532460306    0.8288430031428646    0.1714204863998034 Co
   0.8413288550646844    0.8252918629818610    0.4976979794052940 Co
   0.8373915184504522    0.8327624205192848    0.8268509896416234 Co
   0.2507271280584483    0.2516342814243777    0.2529930521682797 O
   0.2547395158347848    0.2412629865310387    0.5902465052077999 O
   0.2582265675117985    0.2475349995316560    0.9217467646602064 O
   0.2523586821375614    0.5886402454438643    0.2537361555877055 O
   0.2593143929505381    0.5718316550931219    0.5973091767632156 O
   0.2478838273869558    0.5961799275294418    0.9175765906589601 O
   0.2597096971800711    0.9160045409397904    0.2475834095895578 O
   0.2548522592151107    0.9117811859351819    0.5882335432656900 O
   0.2404209379340524    0.9220688520758220    0.9275874820985547 O
   0.5896730850543790    0.2548418020426545    0.2542359767477109 O
   0.5856532758002955    0.2571968539784923    0.5864450379466800 O
   0.5843851015707865    0.2524865982377097    0.9183541930321900 O
   0.5828154100674929    0.5876942123359249    0.2537991140030355 O
   0.5880119068657665    0.5940233095796021    0.5828666849520568 O
   0.5867773338516836    0.5852333935934572    0.9206330971820348 O
   0.5839598234532403    0.9212805266485357    0.2565518331816388 O
   0.5899833807067631    0.9178961688490148    0.5848018011482337 O
   0.5941011925851919    0.9192851465272761    0.9155991944809959 O
   0.9272894165268666    0.2521350437970208    0.2473032627867703 O
   0.9114887550666384    0.2530811300427025    0.5916266042698268 O
   0.9161013899528699    0.2514173300418298    0.9246534110257753 O
   0.9146248282436099    0.5967211858601200    0.2491558603759373 O
   0.9121897877123432    0.5912461160747128    0.5886054013656757 O
   0.9195262486753312    0.5860472706758967    0.9227648902339467 O
   0.9254858710371555    0.9275013851185293    0.2453814027565317 O
   0.9258185874223708    0.9107886115980321    0.5882802725256234 O
   0.9175270757083340    0.9303935378790664    0.9111167889993437 O
   0.0767043514867693    0.0780730458553516    0.0851852953069192 O
   0.0861015640982483    0.0783599071611835    0.4025992087272037 O
   0.0791316252899363    0.0806325693392317    0.7475819988802516 O
   0.0785303918358936    0.4139808624489213    0.0802739948344071 O
   0.0701048698444544    0.4167727233315655    0.4185728572929899 O
   0.0801311312036727    0.4075045575032850    0.7550752906182501 O
   0.0879805631667366    0.7437673806504304    0.0785024998611311 O
   0.0748074877826185    0.7477315730791811    0.4184538356069789 O
   0.0740401076221655    0.7568347736556260    0.7465018020654962 O
   0.4091978902804266    0.0762048905149516    0.0914045342743124 O
   0.3983255946306232    0.0894127787462466    0.4177684621633324 O
   0.4125224436383235    0.0744772480165737    0.7474651932467116 O
   0.4169121612337129    0.4122110353043040    0.0742863115765495 O
   0.4069827396753940    0.4039773334892706    0.4287741718964503 O
   0.4189552341694066    0.4176167256975154    0.7411519999291707 O
   0.4090015088391990    0.7525501479545627    0.0774985196826160 O
   0.4130497322821103    0.7391461098092771    0.4144362943187629 O
   0.4110591578343060    0.7417785924740928    0.7516081749976035 O
   0.7443246521400332    0.0815695164280516    0.0818249882537574 O
   0.7464226386589277    0.0753571843137424    0.4152287768746292 O
   0.7446184890645844    0.0836767419934140    0.7454439802672338 O
   0.7443107831899366    0.4173959150286297    0.0788865082828984 O
   0.7424317038217816    0.4130378381786891    0.4177998382628093 O
   0.7427845826874293    0.4143789908005017    0.7465636595847769 O
   0.7366345806434123    0.7593763471226339    0.0768935134781361 O
   0.7389617470696462    0.7451996533544646    0.4196533884561226 O
   0.7529529740316072    0.7432393095869574    0.7448474203150012 O
