Li20 Co27 O54
1.0
  14.1209132099999994   -4.2168848700000003   -0.0134986200000000
  14.1209132099999994    4.2168848700000003   -0.0134986200000000
  12.8685137100000002    0.0000000000000000    7.1821868699999998
Li Co O
20 27 54
direct
  -0.0013333388616518    0.0075311618235050   -0.0044383768254797 Li
  -0.0056088605082735   -0.0016276152187827    0.3392167052012491 Li
   0.0081801134382702   -0.0028652189733104    0.6613184451052472 Li
  -0.0028086962722487    0.3199489004113084    0.0122785911441190 Li
  -0.0060970084769920    0.3356859937240398    0.6654455937425272 Li
   0.0051297278474045    0.6682637696515086   -0.0075385008654160 Li
   0.0041191298763294    0.6583227391853366    0.3411028979075800 Li
   0.0026722405935932    0.6623910466700977    0.6651922270138823 Li
   0.3281494789047701   -0.0003398147277618    0.3394603876226656 Li
   0.3284587235960684    0.0019839806760761    0.6696493090198310 Li
   0.3209878461395526    0.3302160380280927    0.0092110919068436 Li
   0.3275438598610615    0.3455191871848907    0.6622477932413402 Li
   0.3305152351122021    0.6672757590826877    0.3332865394974601 Li
   0.3372918658677653    0.6612139356806115    0.6644771849117445 Li
   0.6630402903624245   -0.0030565564047920    0.3353712067473081 Li
   0.6733084711983195    0.3313881701168550    0.3255000689561253 Li
   0.6676721359945197    0.3289467579146921    0.6698622764838149 Li
   0.6613893496352343    0.6698973163599609    0.0002314204478364 Li
   0.6686042007905519    0.6627479744179595    0.3353659212896018 Li
   0.6558644328855066    0.6747070431518917    0.6649133358843441 Li
   0.1687205553111106    0.1680639361985839    0.1623613431569642 Co
   0.1638061510496320    0.1678589737438056    0.5104009216265945 Co
   0.1658810714257766    0.1681799817467579    0.8328658147662373 Co
   0.1687276944228743    0.5078348936687171    0.1588202280865493 Co
   0.1615044204177988    0.4984277153301527    0.5051924144830707 Co
   0.1625899465569544    0.4957976891859053    0.8375250778305264 Co
   0.1679812139690710    0.8278807308662084    0.1735685941226354 Co
   0.1675000527249766    0.8252272864843735    0.5010925110666197 Co
   0.1720039965973691    0.8279479347894059    0.8332647872351033 Co
   0.4876809372282898    0.1809922898133866    0.1664940840256231 Co
   0.4927240742082882    0.1720797653271894    0.4989583566505776 Co
   0.5078245795326173    0.1666104659523434    0.8229526727353056 Co
   0.5068489410567102    0.4942022081238866    0.1634184284688765 Co
   0.5008597770679047    0.5106735749617015    0.4865112248051198 Co
   0.4992288555542338    0.4986868728838298    0.8299606034413879 Co
   0.5040386812607841    0.8289854440747483    0.1679359259551554 Co
   0.4939453945212143    0.8298680208991552    0.5074287144245313 Co
   0.4936468936460585    0.8363833438240096    0.8374739108634627 Co
   0.8376856600316955    0.1654155098663729    0.1626748608611226 Co
   0.8331765985235049    0.1785681621038839    0.4916789207698416 Co
   0.8375025708695474    0.1754592010835789    0.8235165762885451 Co
   0.8338842420274705    0.4944777704349566    0.1707656475978948 Co
   0.8305890028727957    0.5116694812327930    0.4901626269689197 Co
   0.8459066064049086    0.4973662545123227    0.8219409774208648 Co
   0.8359727876646439    0.8343492417432345    0.1667261417526082 Co
   0.8293255140580931    0.8374562512610271    0.4964408939933523 Co
   0.8301394936201106    0.8341720925713084    0.8372006403162432 Co
   0.2635102937625746    0.2504952946796654    0.2443338876197213 O
   0.2611560308383367    0.2419314417777013    0.5923660206929067 O
   0.2580897648897754    0.2537644268683825    0.9170545399809059 O
   0.2433700900740098    0.5853356361200492    0.2583511529157456 O
   0.2536309535656766    0.5929349525718131    0.5753421624662969 O
   0.2549905226068233    0.5811544533491630    0.9236401753519486 O
   0.2541357478833450    0.9146692049679591    0.2578218903734361 O
   0.2555185419354740    0.9202503365013734    0.5917366141659668 O
   0.2511351808675756    0.9226038483348764    0.9157713202798516 O
   0.5906900474592770    0.2500570178802055    0.2584636040830851 O
   0.5780074916883846    0.2602710179461320    0.5921382619588423 O
   0.5845239507448140    0.2497850731695955    0.9231259033193860 O
   0.5823514171653720    0.5850033941827550    0.2577945677526067 O
   0.5808644393497968    0.5803850807176976    0.5979888162899240 O
   0.5926961435618535    0.5876013670922428    0.9134037330295393 O
   0.5909717750208140    0.9224885235292326    0.2500756548300733 O
   0.5823072411058181    0.9308223007705376    0.5815845790003999 O
   0.5923788914943624    0.9069383561135667    0.9281857977872313 O
   0.9182904239641867    0.2507451200552898    0.2586770843450371 O
   0.9240463484664870    0.2531381995596459    0.5836302154903632 O
   0.9154540273547714    0.2595242288860934    0.9192962988531541 O
   0.9205058442624005    0.5875033100111064    0.2514307386878557 O
   0.9206993683014222    0.5938691042050874    0.5783084114997843 O
   0.9152188064925054    0.5936919398256258    0.9206882930776867 O
   0.9262443532258732    0.9073457086644455    0.2611615886688741 O
   0.9274027128204445    0.9148532206961084    0.5844507200607129 O
   0.9150015056800176    0.9239475920759792    0.9186516115620361 O
   0.0887706104921540    0.0737736706577314    0.0806269625141914 O
   0.0779980971683236    0.0906656083354632    0.4080602112013066 O
   0.0749224501583993    0.0840002820023897    0.7445393201690970 O
   0.0771099992563970    0.4134239497657565    0.0804301972194712 O
   0.0784533444464246    0.4111689219822843    0.4145632739964770 O
   0.0858473470136660    0.4120072505012421    0.7424454796262177 O
   0.0848679770715299    0.7450331364783186    0.0771139725341824 O
   0.0794947508665752    0.7454568361501156    0.4142414382169295 O
   0.0872526895821883    0.7374946854718929    0.7446371563147368 O
   0.4087895343777367    0.0817250132221410    0.0771500039399293 O
   0.4129042712534849    0.0768267767391447    0.4127412766129575 O
   0.4091039434127269    0.0886174840679181    0.7450449677399489 O
   0.4148178329252039    0.4089170995406250    0.0788179442055277 O
   0.4088330537712549    0.4121556776516353    0.4182526508813112 O
   0.4140964633967134    0.4169540409402613    0.7433465722783511 O
   0.4030703171938462    0.7478501690112459    0.0899644108948101 O
   0.4134950009409265    0.7513266513153369    0.4107514050804673 O
   0.4237023933790751    0.7364933828429399    0.7471020925610297 O
   0.7424634003145512    0.0969920545237033    0.0691369428373435 O
   0.7425278899290184    0.0772592334558820    0.4182536120804562 O
   0.7473239234540136    0.0669011555458427    0.7598189145464750 O
   0.7500595271967757    0.4087406019036206    0.0795665746301663 O
   0.7461907574870660    0.4171404324749002    0.4112320384630256 O
   0.7471730016899263    0.4141272934302627    0.7424894040914651 O
   0.7524505787186647    0.7489272037392004    0.0765113926646251 O
   0.7469713356504417    0.7451857718867931    0.4100508685611371 O
   0.7430990061897934    0.7503108759511657    0.7445800734661867 O
