Li20 Co27 O54
1.0
  14.1209132099999994   -4.2168848700000003   -0.0134986200000000
  14.1209132099999994    4.2168848700000003   -0.0134986200000000
  12.8685137100000002    0.0000000000000000    7.1821868699999998
Li Co O
20 27 54
direct
   0.0084117811924985   -0.0013041058199662   -0.0015345889539984 Li
  -0.0079271770949940   -0.0096584019103351    0.3424334517778318 Li
  -0.0039619105690491    0.3364534837408202   -0.0006509082013848 Li
  -0.0030984562418436    0.3294968745570848    0.3402339010342263 Li
  -0.0013703780910096    0.3308749546360569    0.6709388916010525 Li
  -0.0038424695182668    0.6774396898259289    0.6572705843091675 Li
   0.3361284251402715    0.0009431307330665    0.3272065450648947 Li
   0.3410247364885619    0.0015577776232705    0.6563311102471142 Li
   0.3393384842053355    0.3285370232494134    0.0062184569279931 Li
   0.3333858312656083    0.3363431028422115    0.3317286798679163 Li
   0.3409068267296165    0.3384279194671617    0.6591811444070493 Li
   0.3362365864209870    0.6600573959795889    0.0038012921624788 Li
   0.3398891031100723    0.6610479062285239    0.3334137204062501 Li
   0.6715768620543886    1.0067062342817066   -0.0081670567333028 Li
   0.6600981823425356    0.0080727423923409    0.3330456039540087 Li
   0.6579324776637168    1.0149785573197871    0.6627883680140846 Li
   0.6633427553790415    0.3320184827797564    0.0007354004498717 Li
   0.6701628929694428    0.3255403640239405    0.3362983331928764 Li
   0.6756206551664641    0.3322113775908778    0.6587332714145960 Li
   0.6567950267508977    0.6719718721936421    0.6701479302279694 Li
   0.1674101467988313    0.1665447787879071    0.1698962885306120 Co
   0.1636298493201793    0.1641502258430643    0.4985713933963734 Co
   0.1687507020003821    0.1601869587529364    0.8424429416894389 Co
   0.1656695464333960    0.4960080343000255    0.1719169567510446 Co
   0.1648505610507709    0.4948952219333746    0.5106608517558711 Co
   0.1567078261072241    0.5150524189046255    0.8280908791740881 Co
   0.1700903290683845    0.8145691669460460    0.1857105252975156 Co
   0.1657971422105606    0.8339257691681383    0.4952819803819670 Co
   0.1578471053584189    0.8397409757641947    0.8367255479647087 Co
   0.5004333047718507    0.1767202466643298    0.1548074296843999 Co
   0.5012392243772414    0.1596838514397030    0.5020580206531338 Co
   0.4984630770845203    0.1698056045554132    0.8243353998928309 Co
   0.5009041366862431    0.4987984551830755    0.1649562426875609 Co
   0.4965888600563012    0.5047466606717378    0.5000769590686545 Co
   0.4964281792454631    0.5056111010549398    0.8311959331953960 Co
   0.5027925259832302    0.8319328599140374    0.1658974120232400 Co
   0.5001604419084875    0.8300619460878684    0.5069575870541942 Co
   0.4983213074308660    0.8325921498163181    0.8349324433359987 Co
   0.8370730130191556    0.1570182485377019    0.1745426995960110 Co
   0.8344906316414662    0.1715881269072889    0.4941451083730742 Co
   0.8283138913898829    0.1686701422215442    0.8365520439799236 Co
   0.8318258936464623    0.4949105538370097    0.1757941763699905 Co
   0.8293861833903046    0.5036102717534058    0.5022000529686405 Co
   0.8346051861130939    0.5026427698514180    0.8293646065078587 Co
   0.8343530206965218    0.8354528505022303    0.1679998339217176 Co
   0.8375394393295181    0.8233057636976071    0.5016034437722824 Co
   0.8306466545850960    0.8333837810724739    0.8319703520193733 Co
   0.2598683577200991    0.2550679569711786    0.2525821656669912 O
   0.2570225928526519    0.2562485306328587    0.5804166568333836 O
   0.2544683866122380    0.2516584001447139    0.9216934713487052 O
   0.2562637068580592    0.5842302199996202    0.2500884752714311 O
   0.2616830176723284    0.5739319990606596    0.5935586780504745 O
   0.2505068568928647    0.5934361837001725    0.9150530253036123 O
   0.2556332991612358    0.9259920291023538    0.2498752810096027 O
   0.2587563156845440    0.9185349832112907    0.5821816008519403 O
   0.2557857947723168    0.9229328677305864    0.9174900962973997 O
   0.5865704466556115    0.2503804087702024    0.2538896871312923 O
   0.5899481080034050    0.2543861991424970    0.5789256129879893 O
   0.5853882559739281    0.2545770845387989    0.9146628621567027 O
   0.5858054883806361    0.5938573517939183    0.2513251087553106 O
   0.5865913154179506    0.5785304185673350    0.5964242236609952 O
   0.5788308020745148    0.5961660950121019    0.9168018090622246 O
   0.5887299320325717    0.9204746107434382    0.2553152336801234 O
   0.5757025017465888    0.9245390939133420    0.5952012748147225 O
   0.5910654546450771    0.9117694888681196    0.9214279423242315 O
   0.9200958562358309    0.2444286172849405    0.2618358378467988 O
   0.9202435720287658    0.2502281354938696    0.5816820076554032 O
   0.9318394810486321    0.2518062349572368    0.9117020239327133 O
   0.9214298411243722    0.5801309012068396    0.2579524508542145 O
   0.9160292248534833    0.5795806711810393    0.5938429399574358 O
   0.9153309674596787    0.5909542725996259    0.9221777643044790 O
   0.9248537450093400    0.9103173511425197    0.2545562273597154 O
   0.9273097951002423    0.9166013872268850    0.5838755514614875 O
   0.9162884317477773    0.9110520574874992    0.9281790645260781 O
   0.0803643708783535    0.0753982030368146    0.0861249705916639 O
   0.0784680347774444    0.0863376103507443    0.4112037653893721 O
   0.0795689997415993    0.0822720930371930    0.7472431454844385 O
   0.0811403740541715    0.4083639015487305    0.0835590014648733 O
   0.0771477753405636    0.4218201341000194    0.4065607441637779 O
   0.0769849958950534    0.4209257455797673    0.7413209414472112 O
   0.0931852937294835    0.7457949712445827    0.0668175715850302 O
   0.0796125281676794    0.7513596969604036    0.4079571288286424 O
   0.0760048773136930    0.7520018984729548    0.7420884113696954 O
   0.4129856111796941    0.0737382346084925    0.0801319759349533 O
   0.4114195063838124    0.0724320476908946    0.4212681398711052 O
   0.4081908968506484    0.0809539136280960    0.7467331878893159 O
   0.4200131614169853    0.3978071975698401    0.0872640352536012 O
   0.4150626976524435    0.4114691195983347    0.4119131876445426 O
   0.4206421402212449    0.4114744750884844    0.7460539954652987 O
   0.4144928791108065    0.7385155707803714    0.0881504024042237 O
   0.4156886752652368    0.7490561465536112    0.4072358444427535 O
   0.4031354714194019    0.7453646946758455    0.7534215970495981 O
   0.7504400704267273    0.0841772672657278    0.0739763084895564 O
   0.7375810193119871    0.0752352281317165    0.4272892728940852 O
   0.7514817600482253    0.0839545973645034    0.7391753291980925 O
   0.7481742575637006    0.4071546417732268    0.0846519225157647 O
   0.7476338798490919    0.4103693340189410    0.4145608540143444 O
   0.7472458940673818    0.4104233507008874    0.7465402365875431 O
   0.7418790716067921    0.7482367857272109    0.0835394781459917 O
   0.7503279241636625    0.7422495908945544    0.4138074987511733 O
   0.7432473301661828    0.7462273240592343    0.7486573657201100 O
