Li20 Co27 O54
1.0
  14.1209132099999994   -4.2168848700000003   -0.0134986200000000
  14.1209132099999994    4.2168848700000003   -0.0134986200000000
  12.8685137100000002    0.0000000000000000    7.1821868699999998
Li Co O
20 27 54
direct
  -0.0041630304554620    0.0013517924144624    0.3378031840376705 Li
  -0.0017685555131808    0.0075151274320803    0.6606511591159441 Li
   0.0051175163355484    0.3238908199596317    0.0095523280624776 Li
   0.0038367810665096    0.3335250935020698    0.6647110187085458 Li
  -0.0033320926040355    0.6717298892071516   -0.0023433345271443 Li
   0.3401471418791938   -0.0029512877585518   -0.0022666144432984 Li
   0.3349915514462225    0.0005850183926215    0.3324974936911199 Li
   0.3325944857235862   -0.0060488804722380    0.6771451369071020 Li
   0.3337385904872778    0.3367284679654283    0.3320275593628566 Li
   0.3410212131831439    0.3281509650781013    0.6625008414830811 Li
   0.3275368731940859    0.6706059307698005    0.0033486005566797 Li
   0.3375485434926698    0.6725417389918491    0.3190858011743070 Li
   0.3330337926096786    0.6690716286742155    0.6636674006044678 Li
   0.6624269679121774   -0.0012261501237636    0.3382967967685367 Li
   0.6666854117498178    1.0031604317581899    0.6659853800283131 Li
   0.6611430767607069    0.3422331378360427   -0.0048969936784418 Li
   0.6683881448544398    0.3372386882818820    0.3288397477292674 Li
   0.6724066508215315    0.3270872430883276    0.6723500890525022 Li
   0.6605826646458163    0.6643526624180470    0.0083581734496459 Li
   0.6648708045250784    0.6681397004385636    0.6669541138089997 Li
   0.1729542677097257    0.1655083483038181    0.1653673271629771 Co
   0.1659968023411088    0.1586258295508617    0.5026424279367292 Co
   0.1581207634323772    0.1620945267026572    0.8463823247571336 Co
   0.1688061467375239    0.4975711650743274    0.1654493252365118 Co
   0.1526524071569700    0.5047038745287656    0.5074165066710832 Co
   0.1804179947026945    0.4929807641933018    0.8283192716732571 Co
   0.1779723505148148    0.8229458879989550    0.1635699012560574 Co
   0.1667983845803385    0.8292615544355297    0.4997770397127316 Co
   0.1636550391189442    0.8316669595578559    0.8422526211207559 Co
   0.5042692970131528    0.1596075233315489    0.1664106004560638 Co
   0.5020574566796636    0.1691346055554279    0.5031768229689325 Co
   0.5068959802347370    0.1609924975387821    0.8348533572493257 Co
   0.5022697672083312    0.5010640910242717    0.1618308998793418 Co
   0.5066214797555708    0.4968850222195162    0.4992489919246314 Co
   0.5023518949249801    0.4994926786325635    0.8320265089406701 Co
   0.5106902981098520    0.8274532043812486    0.1651670685328373 Co
   0.5034777841425017    0.8228665714370503    0.5043158933939069 Co
   0.4968979333239119    0.8320162389595502    0.8369570847869139 Co
   0.8357129019262399    0.1617589955588604    0.1689909953570373 Co
   0.8284498375988747    0.1711094142306934    0.4976861799036693 Co
   0.8272991171892821    0.1711753222593976    0.8352075221722755 Co
   0.8239423294922099    0.5098466898867577    0.1653263644355221 Co
   0.8280901649799809    0.5058349171288457    0.5015690105182655 Co
   0.8370257101582597    0.4944019094936860    0.8406030981084276 Co
   0.8410176196583709    0.8382024299323653    0.1608249145007943 Co
   0.8383245578485915    0.8383357374305346    0.4947205446492958 Co
   0.8305157897842114    0.8358793784187869    0.8284319683921901 Co
   0.2553902162336579    0.2504772355737881    0.2593858778022685 O
   0.2485277355448370    0.2479029364255058    0.5981600677442125 O
   0.2557045163651436    0.2559447731460214    0.9121458747149593 O
   0.2558616830620717    0.5924773160217566    0.2412510541204739 O
   0.2601035964518945    0.5800127547319999    0.5862411514598788 O
   0.2682213161233912    0.5692577011591295    0.9225429981345646 O
   0.2626387063020006    0.9120720666816301    0.2531815622134747 O
   0.2513789215692595    0.9250464851423910    0.5860602880211917 O
   0.2536531495776860    0.9185342459405050    0.9165618381016442 O
   0.5926539830312110    0.2568575091099626    0.2437559260390500 O
   0.5895219077458751    0.2539959252045509    0.5825448131593536 O
   0.5825496602508436    0.2488512106189384    0.9262077305267441 O
   0.5927774513950101    0.5815904083978461    0.2556610701035944 O
   0.5832819094310275    0.5951706688234184    0.5829227390699415 O
   0.5821989382383055    0.5905026372818476    0.9218985649651142 O
   0.5843158642087809    0.9265462892025946    0.2463300709300123 O
   0.5883787644864298    0.9237063861191614    0.5817833167597481 O
   0.5930729326193310    0.9109841346939133    0.9208643891802106 O
   0.9248159394349648    0.2568613678375031    0.2494685977111455 O
   0.9278430772575974    0.2481243582281685    0.5875979143256727 O
   0.9172320328042247    0.2486729725347444    0.9298903385528935 O
   0.9270906820924610    0.5904673016779336    0.2423473296425691 O
   0.9184937506915192    0.5877340425104558    0.5894210031099314 O
   0.9197978329730864    0.5862681692773329    0.9192627298449972 O
   0.9267784038583077    0.9136902710786182    0.2540298139831640 O
   0.9199824762020294    0.9185366720350807    0.5868745033776537 O
   0.9150279913110215    0.9275378289319882    0.9159572939899762 O
   0.0757663150483474    0.0828414729933627    0.0811869767981684 O
   0.0805195867500188    0.0935320893958464    0.4012258003592860 O
   0.0712217360948464    0.0752263798838488    0.7587356140134011 O
   0.0807752366280552    0.4155098013956040    0.0735988796838682 O
   0.0781596665781404    0.4103755945725250    0.4187201686427826 O
   0.0707031407274132    0.4201709104586680    0.7503624623504781 O
   0.0713122151245585    0.7594532566592077    0.0762461777802674 O
   0.0804427708934184    0.7483688401626639    0.4106858013468728 O
   0.0830357443479274    0.7444552939209310    0.7451293164635309 O
   0.4173127359771224    0.0737680297100046    0.0830606344762379 O
   0.4095810303682069    0.0777251671902819    0.4142516588386318 O
   0.4007141991081574    0.0799595042932788    0.7628396887751822 O
   0.4224380794775913    0.3990405069001687    0.0856594515941545 O
   0.4210137858907673    0.4076459462443933    0.4106736399994446 O
   0.4168366772278488    0.4199013486474254    0.7372846060136033 O
   0.4143297814695620    0.7490414691943907    0.0758815357655631 O
   0.4101919641748908    0.7505527045309797    0.4094321214723741 O
   0.4149624914550915    0.7397307876500816    0.7477151070594213 O
   0.7459345889107384    0.0839357233129734    0.0768528539804128 O
   0.7480768711371005    0.0834752394204719    0.4086875023695226 O
   0.7461644758554506    0.0852588854724814    0.7404509397933533 O
   0.7441443364891223    0.4133032240694704    0.0824815142061497 O
   0.7549016187598824    0.4000841209507454    0.4192188718343366 O
   0.7450335000432999    0.4009767737251825    0.7617574535701138 O
   0.7539082851029382    0.7335674969712739    0.0858210531399836 O
   0.7461184594661987    0.7472325449816836    0.4136264461025334 O
   0.7335267634943690    0.7453132755701841    0.7593613475392333 O
