Li20 Co27 O54
1.0
  14.1209132099999994   -4.2168848700000003   -0.0134986200000000
  14.1209132099999994    4.2168848700000003   -0.0134986200000000
  12.8685137100000002    0.0000000000000000    7.1821868699999998
Li Co O
20 27 54
direct
   0.0005390248930458    0.0073146728075869   -0.0034875901375808 Li
   0.0010335773321304    0.0008317972924012    0.3402466031106541 Li
  -0.0063394732280482    0.0014497913940199    0.6674411886793661 Li
   0.0001164826194150    0.6738980096008086   -0.0044541997834201 Li
   0.0043994364351880    0.6635690152654389    0.3361454956827344 Li
  -0.0044972802369616    0.6721774376650385    0.6651234737334375 Li
   0.3297910909736341   -0.0033656899341318    0.0026833199334145 Li
   0.3344265774979249    0.0016159053551685    0.6644697667146997 Li
   0.3334327737884176    0.3267466355384517    0.0009415481066690 Li
   0.3298260807319397    0.3336417676489092    0.3383207625147835 Li
   0.3375171182749427    0.3263507379079918    0.6690267703059684 Li
   0.3308896042401470    0.6707285716826580    0.3263305616087558 Li
   0.3316943153794653    0.6722538768560093    0.6607157455621374 Li
   0.6534164564825846    0.0053904192010980    0.3411289810554829 Li
   0.6623286433421335    0.3404978506089450   -0.0037869952669129 Li
   0.6612225068619935    0.3252183855033959    0.3446934802716505 Li
   0.6689985590391049    0.3278426875375838    0.6733935880861827 Li
   0.6650911184891645    0.6666944840699963   -0.0008171743637462 Li
   0.6765780195324504    0.6539572804347062    0.3311079116225471 Li
   0.6638639332200827    0.6686417586129315    0.6671374743440779 Li
   0.1708975393985054    0.1658547582478427    0.1622630533991110 Co
   0.1715863798121802    0.1701942576273076    0.4933943190353441 Co
   0.1574820430310724    0.1737838939481077    0.8344832494640709 Co
   0.1621521169356815    0.5055192386660172    0.1625341991741793 Co
   0.1794655444356869    0.4990851109145626    0.4904936855602955 Co
   0.1535824670731102    0.4964851830876246    0.8472675062540272 Co
   0.1708532398231363    0.8265358915649832    0.1718445094104952 Co
   0.1633935341456016    0.8377749822970291    0.5015532164078594 Co
   0.1664651887354067    0.8358684142444281    0.8324238873404818 Co
   0.4986309588936454    0.1651608786460386    0.1665061301710586 Co
   0.4990324845454162    0.1631667596405179    0.5050226639296821 Co
   0.5064793992165426    0.1694575944944394    0.8254853430100479 Co
   0.5046185686762257    0.5037378330000390    0.1599682767314853 Co
   0.5010442091820030    0.4979221955009261    0.5041705421458756 Co
   0.5149957968286107    0.5020082549685490    0.8174540914646953 Co
   0.4978173315591613    0.8303234590732876    0.1673736185358367 Co
   0.4907405164920882    0.8250590042224178    0.5142898611712545 Co
   0.5026813728291508    0.8327871777952389    0.8354777067927078 Co
   0.8334527888910108    0.1640250761173105    0.1690072078722684 Co
   0.8297291101154374    0.1657452167700136    0.5022087390309732 Co
   0.8379483821378151    0.1686728723754721    0.8242098425096057 Co
   0.8303779344775196    0.5026679385504066    0.1689610721534617 Co
   0.8228639707539295    0.5096062673848564    0.5031298043228351 Co
   0.8390534564835034    0.4955144663189114    0.8290318734328782 Co
   0.8316014333691256    0.8266520629372679    0.1700943132913277 Co
   0.8325130502749404    0.8337711687104722    0.5059763047419672 Co
   0.8296337451706999    0.8259110725249157    0.8424121928533135 Co
   0.2500879225127530    0.2451010636226245    0.2631618899605288 O
   0.2518854027117946    0.2567344172197383    0.5911977541832678 O
   0.2591537667759449    0.2501910900811324    0.9229008024366981 O
   0.2572886518585548    0.5881488007933704    0.2515162021327741 O
   0.2670170118225914    0.5849937098986610    0.5799703051749239 O
   0.2521590602696975    0.5822913487038217    0.9262466269411392 O
   0.2589131394297377    0.9116419240333221    0.2594607381741691 O
   0.2528914209578775    0.9176735772520060    0.5900328480852471 O
   0.2527820733597134    0.9158809143384782    0.9237460817244567 O
   0.5904156641131844    0.2531464219942216    0.2529270030942640 O
   0.5824080016985749    0.2578656990912208    0.5872999225388092 O
   0.5854083463234930    0.2582611223926293    0.9191972202008974 O
   0.5912209947890226    0.5897617674196179    0.2470685232203591 O
   0.5793403339099317    0.5909834098775355    0.5896816265821030 O
   0.5848882027201732    0.5859769058141795    0.9192023667617402 O
   0.5869255600029682    0.9279120782805940    0.2479006558616476 O
   0.5915780941846227    0.9251538084708986    0.5776223153912703 O
   0.5839738237168999    0.9235465765028243    0.9184987933502022 O
   0.9307706096570658    0.2453612849607985    0.2493697228320484 O
   0.9156456428446043    0.2533835147396457    0.5895155331477703 O
   0.9113074097820564    0.2543415376060292    0.9227095885601505 O
   0.9202858527914197    0.5887145431964039    0.2544790273557337 O
   0.9226443858492737    0.5899894679732083    0.5835814861199450 O
   0.9217499474701467    0.5861326406889580    0.9142610961607313 O
   0.9173351277784227    0.9113529022345070    0.2579490753292741 O
   0.9214879976080459    0.9240174216672836    0.5854291664000876 O
   0.9245034446744774    0.9141501515347777    0.9220663737298272 O
   0.0761594942440639    0.0857192137224235    0.0769988311466382 O
   0.0882637724205248    0.0761421964292599    0.4104518768745130 O
   0.0850976676971782    0.0766981442309992    0.7490208565719799 O
   0.0762446498479293    0.4186493900412886    0.0793046157363224 O
   0.0770484433635168    0.4213444322491295    0.4077861579481804 O
   0.0816437018106360    0.4146035392204290    0.7446587870027527 O
   0.0803340824227141    0.7449114491298063    0.0806568555562537 O
   0.0796556457883009    0.7408268063338975    0.4201510090035388 O
   0.0697537216532601    0.7565499051514265    0.7495781943072101 O
   0.4135888473431145    0.0742238076650914    0.0847348864300019 O
   0.4275124834443977    0.0692362724886734    0.4153424692980631 O
   0.4185417556194873    0.0710053509977775    0.7478214974168748 O
   0.4038726243894591    0.4165507224305549    0.0841769901047728 O
   0.4093730258796201    0.4117894624831870    0.4179048727576509 O
   0.4138330733497322    0.4167855741996924    0.7440845743352784 O
   0.4056827821929617    0.7544255315210380    0.0792817845119886 O
   0.4161687832193309    0.7468628214676756    0.4078008102290734 O
   0.4067057151103994    0.7507035250298741    0.7485358564578685 O
   0.7515665056941466    0.0760657605138123    0.0761438011619061 O
   0.7499798068874458    0.0791606568890668    0.4074311185296311 O
   0.7417771055365199    0.0871083043718163    0.7381495924527482 O
   0.7423746524593433    0.4141986755766357    0.0802259179416428 O
   0.7523899596430690    0.4038299764415439    0.4160539451522391 O
   0.7392303334048125    0.4178415247156039    0.7456773842445291 O
   0.7393736920428959    0.7550648147756051    0.0801429478748085 O
   0.7526299121842758    0.7477864779022674    0.4083366515801748 O
   0.7389912477381386    0.7443475970838400    0.7557131011384157 O
