Li20 Co27 O54
1.0
  14.1209132099999994   -4.2168848700000003   -0.0134986200000000
  14.1209132099999994    4.2168848700000003   -0.0134986200000000
  12.8685137100000002    0.0000000000000000    7.1821868699999998
Li Co O
20 27 54
direct
  -0.0069368692040796   -0.0004588493367956    0.0099970694482310 Li
  -0.0006654023821979   -0.0003166339651441    0.6730882300957757 Li
  -0.0018664830188443    0.3304059534948325    0.0051494528014469 Li
  -0.0019099164703195    0.3266940483613493    0.3395387295087975 Li
   0.0032245749274458    0.3365617793639794    0.6626654519676477 Li
   0.0006274913393430    0.6648674968259963    0.0019372747022458 Li
   0.0039447626584719    0.6613998006683621    0.3366686146793472 Li
   0.3323460214313106    0.0014495100710067   -0.0016566901661215 Li
   0.3370886386353812    0.0004361263456537    0.3280216205955020 Li
   0.3284346277343138    0.3455261833205361   -0.0048024764220083 Li
   0.3403421232404378    0.3349179513760513    0.3231586603271130 Li
   0.3206892344197663    0.6698097547352179    0.0109834703260815 Li
   0.6584375413321367   -0.0006496102797562    0.3396152743571823 Li
   0.6640075862070040    1.0020655127499190    0.6677999835164730 Li
   0.6610999771931622    0.3473791543172074   -0.0063926065844867 Li
   0.6739014608373636    0.3312825167587146    0.3247232407540092 Li
   0.6734037001477462    0.3238283572111340    0.6693487044101349 Li
   0.6658310934437084    0.6616842658141590    0.0029618047099579 Li
   0.6665023481331830    0.6705290304417109    0.3269641293763318 Li
   0.6681813608238818    0.6615138404454075    0.6679345165351018 Li
   0.1765957690362657    0.1678420794503783    0.1573990855633884 Co
   0.1687957515026990    0.1655399070197022    0.5011023214495450 Co
   0.1658140359118621    0.1614392189234143    0.8423847527387166 Co
   0.1677127778547310    0.4946258863798438    0.1735568377854294 Co
   0.1736181025900005    0.5066056752725686    0.4893140793675171 Co
   0.1711482203410987    0.4967715827810981    0.8346494564515525 Co
   0.1649984783395437    0.8357086663663862    0.1685542988334672 Co
   0.1678883308582017    0.8369646832260048    0.4955199227691330 Co
   0.1619285638010788    0.8414064758314590    0.8286591098736812 Co
   0.5019373410299325    0.1629027445858713    0.1660965191987668 Co
   0.4894581730237415    0.1633997766941119    0.5105717229792877 Co
   0.4930911703122907    0.1671865243769964    0.8337842311136460 Co
   0.5004834195618830    0.5038050776607063    0.1618137447691508 Co
   0.4896884362517208    0.5072004448634566    0.5007716914543423 Co
   0.5032588459574139    0.4946204005737405    0.8369268191373196 Co
   0.5075797011362572    0.8334053668746584    0.1592968841848440 Co
   0.4994196109610123    0.8446856041378306    0.4960362405871055 Co
   0.5044299095473348    0.8358837040760567    0.8240055930748335 Co
   0.8259223183223652    0.1619616592754004    0.1741434915358522 Co
   0.8256816542948074    0.1769092778288445    0.4979602506814436 Co
   0.8198524967873684    0.1832553346566947    0.8266468439226454 Co
   0.8463437116746846    0.4894162898176237    0.1615212209745363 Co
   0.8350065959265427    0.4977370774260759    0.5023942651945996 Co
   0.8310648611036895    0.5081212672154167    0.8281690919662533 Co
   0.8333209754563922    0.8386138539350748    0.1671729871325758 Co
   0.8279880858649113    0.8417384786818167    0.4956915645069760 Co
   0.8389237159661993    0.8346316929152975    0.8269764290150491 Co
   0.2560623221604915    0.2508842667043768    0.2517888765216829 O
   0.2535029716041250    0.2502189247270981    0.5880575558589409 O
   0.2604356148938588    0.2489834220558912    0.9152302952590826 O
   0.2528942491235648    0.5887542190467673    0.2531761295725715 O
   0.2649270512982502    0.5864645948495828    0.5751809962872326 O
   0.2430525351762125    0.5872866563310406    0.9287378803303231 O
   0.2454515442821285    0.9250034288672733    0.2537743323246236 O
   0.2378977442640938    0.9262723748359041    0.5930673867594867 O
   0.2441763331638382    0.9251576974771970    0.9274631844522552 O
   0.5841837562177782    0.2593177019637818    0.2496012582184232 O
   0.5923507681876237    0.2513802992698542    0.5855312030246460 O
   0.5896043024116491    0.2451662348116358    0.9241259979201202 O
   0.5829355787825697    0.5874587494562047    0.2522510657315651 O
   0.5792126786850831    0.5853570659241449    0.5955577320052703 O
   0.5838766149306620    0.5848930957495162    0.9249552041829142 O
   0.5839873587803092    0.9274631376633404    0.2530471089489639 O
   0.5881639934633744    0.9205946823640754    0.5861400449599503 O
   0.5920878672792396    0.9121339373012964    0.9246623297848627 O
   0.9179958611651541    0.2537964042108007    0.2555919089628872 O
   0.9187689478068661    0.2538641124789193    0.5875061417893088 O
   0.9116150898042521    0.2579021255696606    0.9254693050254600 O
   0.9204611002937412    0.5913850500287965    0.2484147897143642 O
   0.9138596231069631    0.5926128885415167    0.5792997980095633 O
   0.9193653028375085    0.5908613817385210    0.9193054459334407 O
   0.9220079144231831    0.9196590072013043    0.2494691846169761 O
   0.9170285194278056    0.9161868371824688    0.5892542576984151 O
   0.9257999140823333    0.9183763301182123    0.9209026592015418 O
   0.0765210167492318    0.0857068784666759    0.0804986941948123 O
   0.0752064468380623    0.0694596334155199    0.4269509599660126 O
   0.0948571997301808    0.0703582701800540    0.7384035574656591 O
   0.0685063523583812    0.4180695465679483    0.0841350137090559 O
   0.0810434556777402    0.4176350644536747    0.4088526467036589 O
   0.0853451017379130    0.4008247475008632    0.7524247472894030 O
   0.0865323628421781    0.7441736532263223    0.0778606611976922 O
   0.0804849223810661    0.7482162611374941    0.4130748502989118 O
   0.0729339972701516    0.7402615383735762    0.7590245283206912 O
   0.4292393475486869    0.0722772933473131    0.0724928245907064 O
   0.4124820996636952    0.0852259900317502    0.4133906348573912 O
   0.4198195163679930    0.0774841101182430    0.7429135408080995 O
   0.4211623196673822    0.4093369282539852    0.0761994751627613 O
   0.4090198468678103    0.4084424811943977    0.4191462576099033 O
   0.4145363807779744    0.4132085657043987    0.7438182131656768 O
   0.4132202907234841    0.7453352327640570    0.0779671140226670 O
   0.4132607033479490    0.7510349147253690    0.4108909507403914 O
   0.4108612658196675    0.7472155857960875    0.7475671165282148 O
   0.7541055177213783    0.0805104871274175    0.0741098093372643 O
   0.7398161626203614    0.0795581829752793    0.4190768999121908 O
   0.7604196268528645    0.0711345512029063    0.7453993790921329 O
   0.7479982784473648    0.4122304107512969    0.0784928056794015 O
   0.7392968523129591    0.4138354821275548    0.4236769008964268 O
   0.7366398515480216    0.4125734029877375    0.7557355620144377 O
   0.7430976342117929    0.7472180910119418    0.0827403518345734 O
   0.7472078320963378    0.7435424677773346    0.4156778758675529 O
   0.7483775074013250    0.7388048017413691    0.7510249085113192 O
