Li20 Co27 O54
1.0
  14.1209132099999994   -4.2168848700000003   -0.0134986200000000
  14.1209132099999994    4.2168848700000003   -0.0134986200000000
  12.8685137100000002    0.0000000000000000    7.1821868699999998
Li Co O
20 27 54
direct
  -0.0059229678643118    0.0086209096181397   -0.0025709874302510 Li
   0.0058346029409517   -0.0074005443756733    0.6698048828871399 Li
   0.0020100814165934    0.3372268836761502   -0.0077249767749039 Li
  -0.0102011752574225    0.3443553977037084    0.3320304594982675 Li
   0.0008529424818974    0.3371356473624065    0.6620376207210139 Li
  -0.0215359275792983    0.6710947759951241    0.0140864009717810 Li
  -0.0012827269199290    0.6634050174025162    0.3378568547651855 Li
   0.3326986217198017    0.0024437193633953    0.0011278801577357 Li
   0.3354842486545333   -0.0110158599413845    0.3396029124663351 Li
   0.3349907066847283    0.3458134712114790   -0.0104135353176085 Li
   0.3290511007554375    0.3342935519164748    0.3357103952398847 Li
   0.3313513841593396    0.6595337200565643    0.0058160294311136 Li
   0.6847646753566885   -0.0067119425354468    0.3196791441172182 Li
   0.6724253330938681    0.9827166610004701    0.6745303369824256 Li
   0.6705298573156070    0.3287845947357772   -0.0001918200856433 Li
   0.6658522937147264    0.3282474538903158    0.3364475961683798 Li
   0.6664429648452521    0.3308919173787354    0.6695867902130974 Li
   0.6648500477880246    0.6581135978708935    0.0114987290596893 Li
   0.6776116530503902    0.6586423899304337    0.3333098540537636 Li
   0.6649018655899566    0.6736172389799007    0.6578629569022697 Li
   0.1684743726411476    0.1546941461774153    0.1737246839733881 Co
   0.1658357865339024    0.1682142686367241    0.5006886917463234 Co
   0.1747146532482675    0.1710348526747728    0.8231527812441264 Co
   0.1580261650822000    0.5064909687100952    0.1706592900191923 Co
   0.1591636571940397    0.5027302562049136    0.5049169228776408 Co
   0.1620458464719570    0.4954664995832576    0.8423941735978802 Co
   0.1621536687763998    0.8331083892658457    0.1691960799196141 Co
   0.1594918953638234    0.8341789088102601    0.4973908120981347 Co
   0.1655047400470774    0.8331046603818932    0.8338297990638570 Co
   0.4958932264789888    0.1669786981207707    0.1645877563552081 Co
   0.4965229243401693    0.1696503377784321    0.4968244824948023 Co
   0.5051295881780324    0.1690080975624592    0.8253120002611420 Co
   0.5110425856846131    0.4914014041443234    0.1608158726481360 Co
   0.5027141364006225    0.5033565302662661    0.4912582899646971 Co
   0.5067180471150714    0.4922798878385570    0.8365625385551979 Co
   0.5076630138232906    0.8193001965074201    0.1662698019568184 Co
   0.4943110897640177    0.8433154786683347    0.4923122647584375 Co
   0.4964838499480915    0.8446980468453551    0.8328429767904435 Co
   0.8377328931748010    0.1600612446094157    0.1702374338101002 Co
   0.8402952106800778    0.1747349778573057    0.4899867816530483 Co
   0.8305987595580585    0.1655757179134508    0.8373546293061955 Co
   0.8348351748947876    0.5009128440659180    0.1666366974197702 Co
   0.8341941376582249    0.5023871559559774    0.4927978557164783 Co
   0.8360993121752220    0.4945549486438351    0.8384029617340498 Co
   0.8335206109270676    0.8370753985736248    0.1641637929243249 Co
   0.8298863678579674    0.8397682190704722    0.4951096363954849 Co
   0.8373684795538088    0.8341798515747259    0.8329653199622074 Co
   0.2520178799356054    0.2517193776740643    0.2563000687806407 O
   0.2605487657978585    0.2581566963420949    0.5735802302180297 O
   0.2567657870143575    0.2590256491897110    0.9129711408626647 O
   0.2492471234791090    0.5817937097536071    0.2605381404682203 O
   0.2550197232477563    0.5803885858860502    0.5932017078023837 O
   0.2389027887903488    0.5921387142615249    0.9289326077723107 O
   0.2521562183009038    0.9261177509355988    0.2446415874206941 O
   0.2491157407286023    0.9328752978731720    0.5774160115949351 O
   0.2480660267762677    0.9163861342341857    0.9284725635810616 O
   0.5906559752231620    0.2512372502958791    0.2533112397094009 O
   0.5901135463920077    0.2536840522844462    0.5798782845178952 O
   0.5799322730316462    0.2606601213126979    0.9195973459782995 O
   0.5853902987011834    0.5869660280671154    0.2590854431110831 O
   0.5894411955856713    0.5820623256280302    0.5863004231081365 O
   0.5909344851979028    0.5775670830621416    0.9227376679320379 O
   0.5797768114208280    0.9199950900763284    0.2623119828529549 O
   0.5906156344918853    0.9224264336198111    0.5822452039752967 O
   0.5810266300788050    0.9294473596044602    0.9145896646542095 O
   0.9124138256461976    0.2574591611567060    0.2541374722174499 O
   0.9140024960954602    0.2504246305554617    0.5938409170833724 O
   0.9135938137872717    0.2546789319877641    0.9215774828562325 O
   0.9242966440648313    0.5849915288852341    0.2486146153130910 O
   0.9223487076409975    0.5860416677809998    0.5867504957395335 O
   0.9300271358103662    0.5872001352176621    0.9090930479893555 O
   0.9216489925842503    0.9238859947768080    0.2493686423752731 O
   0.9306228484147621    0.9146316673802846    0.5833845407769483 O
   0.9177910387075829    0.9124076889351156    0.9282144485108729 O
   0.0792620670914607    0.0776011619525816    0.0818059027448655 O
   0.0807715003936303    0.0858639435355162    0.4095373934649466 O
   0.0797991349766703    0.0818845269196936    0.7450910553916642 O
   0.0843830735804307    0.4098415943955656    0.0778541944754544 O
   0.0814811513189648    0.4110820429684828    0.4136045822139804 O
   0.0718027589230457    0.4168620542563299    0.7471360209211454 O
   0.0850872020693337    0.7386595943696211    0.0848267633146264 O
   0.0755411779748860    0.7436857105075959    0.4211280193110743 O
   0.0882958414112160    0.7351310128267856    0.7521281504753063 O
   0.4164998240358149    0.0785190085738544    0.0832300855577279 O
   0.4119430688466527    0.0824582186620163    0.4111945448082300 O
   0.4184119606455208    0.0771185295816767    0.7450687288829951 O
   0.4080215446793173    0.4244342743060497    0.0719409189671563 O
   0.3962785583254910    0.4216438280114643    0.4196595129059580 O
   0.4147728566354777    0.4078175501941334    0.7522047533131078 O
   0.4137567011645383    0.7552681631969340    0.0738865114176390 O
   0.4096455514064757    0.7401962275442213    0.4170715085858536 O
   0.4000425087872282    0.7511750410534961    0.7537258253264917 O
   0.7509481244023076    0.0709877479581343    0.0830969318314373 O
   0.7488639483849908    0.0813606346826788    0.4077467796335076 O
   0.7450365180027048    0.0764919794906803    0.7459144829552226 O
   0.7489398977653345    0.4146200672695036    0.0806402475622151 O
   0.7497078719279822    0.4131993721009555    0.4120258834830040 O
   0.7422698810626259    0.4199562259598206    0.7415325837569499 O
   0.7432900817168969    0.7509535803926836    0.0800076949885743 O
   0.7385577817950340    0.7504781691291182    0.4172207055635159 O
   0.7503612776686696    0.7478655958383099    0.7430768933425821 O
