Li26 Co27 O54
1.0
  14.1209132099999994   -4.2168848700000003   -0.0134986200000000
  14.1209132099999994    4.2168848700000003   -0.0134986200000000
  12.8685137100000002    0.0000000000000000    7.1821868699999998
Li Co O
26 27 54
direct
  -0.0031910919897014   -0.0000556257842173    0.3313013265694742 Li
  -0.0008115314038067   -0.0078344884274504    0.6750248754110207 Li
  -0.0036705798707213    0.3406581803508889   -0.0054615172197577 Li
   0.0019810026269580    0.3356738089882011    0.3266708563749830 Li
   0.0038890814422911    0.3341016152407715    0.6620167698536639 Li
  -0.0041997849078040    0.6754052829184261   -0.0014240797587243 Li
   0.0053132955307598    0.6599005381568617    0.3333429059284984 Li
   0.0000707550489206    0.6751234777891452    0.6625249697590410 Li
   0.3280072512228885    0.0038363055557875    0.0060493013687763 Li
   0.3368683746919800    0.0046797225878288    0.3235421364305793 Li
   0.3368962117273926    0.0006950854470564    0.6638949192552870 Li
   0.3308886472485245    0.3379272131479316   -0.0019319739248126 Li
   0.3324000137271919    0.3320827570570273    0.3353099911920525 Li
   0.3320705525333981    0.3330838742292230    0.6695213216911784 Li
   0.3365278519903048    0.6683051271615421   -0.0104546198351994 Li
   0.3378091946794101    0.6577719051398225    0.3382544790609471 Li
   0.3355851013332736    0.6646057271248560    0.6651604668200464 Li
   0.6647822923526491    1.0050089210482838   -0.0041904399385009 Li
   0.6738757824455880   -0.0029728481443453    0.3303014338219137 Li
   0.6675397401689896    0.9926626222473801    0.6716387699650782 Li
   0.6609252615339057    0.3353137942732904    0.0031363346121690 Li
   0.6720071137772164    0.3282590340881136    0.3373465214355738 Li
   0.6616771219761928    0.3356879709669124    0.6750600592860059 Li
   0.6722792023639105    0.6670754392844956   -0.0029236175816384 Li
   0.6689805714486120    0.6733803324164181    0.3277742983802343 Li
   0.6560591526519586    0.6723369750799639    0.6707438167677459 Li
   0.1704769812086981    0.1585312093994441    0.1726844276831630 Co
   0.1722138539204710    0.1653720872731727    0.4987510847839399 Co
   0.1627475434240115    0.1754210731945023    0.8292656272559831 Co
   0.1639011772371355    0.5141108257095238    0.1560383318806090 Co
   0.1654347506150575    0.5075963038803593    0.4920599645566405 Co
   0.1614677229641316    0.5061710707406604    0.8363122679708503 Co
   0.1698166965601008    0.8236310415691022    0.1716735740359326 Co
   0.1633495029684858    0.8256028437701410    0.5051843018182326 Co
   0.1739866557682834    0.8261915449761588    0.8327926501471592 Co
   0.5048251029408252    0.1646323910166104    0.1672531275776671 Co
   0.4990599111958798    0.1609922934792451    0.5076719124123269 Co
   0.4979953275985368    0.1703374612242176    0.8297038298696067 Co
   0.4930621290926981    0.5046330019244643    0.1690981864109387 Co
   0.5087514877279433    0.4829082126030738    0.5054664545946677 Co
   0.5085163667636747    0.4922240726918767    0.8338864466211859 Co
   0.4965695262984849    0.8415212641753737    0.1613974328547700 Co
   0.4955395526450388    0.8323339885039047    0.5059937802151271 Co
   0.4944139727698310    0.8281414161193801    0.8468971621740270 Co
   0.8322320168050328    0.1734603151591195    0.1606198462696897 Co
   0.8311777436180318    0.1623135163115667    0.5050544516134470 Co
   0.8311845978836530    0.1656930604334394    0.8369618303939009 Co
   0.8290061604902970    0.5029705156308890    0.1698567651930850 Co
   0.8375463367271223    0.4916314545277101    0.5079851480283721 Co
   0.8277681689721303    0.5020945661199561    0.8386881442395087 Co
   0.8341498099637137    0.8286553612504037    0.1660974038963561 Co
   0.8237167748548238    0.8410691995275639    0.5030687664186254 Co
   0.8383112801283823    0.8393048705475226    0.8252630627160612 Co
   0.2575007748310855    0.2518616955602415    0.2525021588744104 O
   0.2446235827944321    0.2615130443816715    0.5887064764387570 O
   0.2475676248096078    0.2586947152183058    0.9193159389455482 O
   0.2545919600083608    0.5867411552923346    0.2546545224892865 O
   0.2483094067367136    0.5860044163730138    0.5882603157605234 O
   0.2473622523358679    0.5905085705509996    0.9226624197490390 O
   0.2574678645401047    0.9084997018513774    0.2646261626877666 O
   0.2553011216138014    0.9173973606434174    0.5872491433724132 O
   0.2463774877457458    0.9169557585988872    0.9322645096392050 O
   0.5981308710702724    0.2527964405877913    0.2468609974944163 O
   0.5845172929636009    0.2539341519204499    0.5871287717159258 O
   0.5882584387532499    0.2509682157194931    0.9150923460761501 O
   0.5923162050378219    0.5808888492651898    0.2547989233014495 O
   0.5906837686417979    0.5854144865051663    0.5849594743531050 O
   0.5907762878042896    0.5882364627789564    0.9138266093767939 O
   0.5834833558896247    0.9271382112964127    0.2552835119136613 O
   0.5896873453597562    0.9223010138730401    0.5820549345949231 O
   0.5925011734060768    0.9119270491524940    0.9204968211855078 O
   0.9221480130210267    0.2500706915668039    0.2572225117053485 O
   0.9199292360459800    0.2555036538924184    0.5877430595905708 O
   0.9164487028768733    0.2551187101518453    0.9215918247214323 O
   0.9226465229236352    0.5832510894187869    0.2562007697707117 O
   0.9161019290943400    0.5896232054175379    0.5858006753819019 O
   0.9188570440139088    0.5951760670177484    0.9134989095149806 O
   0.9089371671489540    0.9198983940319024    0.2685160335750840 O
   0.9237491285405304    0.9239499865637515    0.5830218506906482 O
   0.9188622596482239    0.9248052969059226    0.9181787061065674 O
   0.0847113905195020    0.0828510619930854    0.0749822687192452 O
   0.0735061713852210    0.0847500462357919    0.4215584458529268 O
   0.0712816278589655    0.0742186478707251    0.7532065269575171 O
   0.0806113384750767    0.4152114025366178    0.0779066624963630 O
   0.0692107934448543    0.4142244907073512    0.4231194417122885 O
   0.0794805486047627    0.4070065593245143    0.7548495935314689 O
   0.0749776288380246    0.7510757732227460    0.0803486261385499 O
   0.0803833028567038    0.7482914952757846    0.4126937907119404 O
   0.0762881343274411    0.7556263744172405    0.7420235958928533 O
   0.4171259272570287    0.0843114148968710    0.0718847455731774 O
   0.4089763540021855    0.0828963152820742    0.4128403256179874 O
   0.4143516038145204    0.0798870631681565    0.7469995075844559 O
   0.4069077723145413    0.4170068581530614    0.0828842545541909 O
   0.4148105214668506    0.4088340382324158    0.4173985973956906 O
   0.4175257209179427    0.4102344981915386    0.7428636256704416 O
   0.4110870809827410    0.7499028817395219    0.0806003357367686 O
   0.4271984565706132    0.7462471539987562    0.4007137732165804 O
   0.4115571841343030    0.7467090203998921    0.7481320478189304 O
   0.7569829797404611    0.0683016971961238    0.0808405488274312 O
   0.7488649658654907    0.0744769786957556    0.4169897003512695 O
   0.7388743684465664    0.0837862385955187    0.7551363036413176 O
   0.7467920171212808    0.4167568199045574    0.0793306201512398 O
   0.7462966692223670    0.4154673238483206    0.4129687112684131 O
   0.7497602565362935    0.4047258250470755    0.7529886727135435 O
   0.7443790768395698    0.7461867428459128    0.0807537676756868 O
   0.7524609203331574    0.7476365748862448    0.4020851197892125 O
   0.7473196214174276    0.7494099469188225    0.7417675474318922 O
