Li26 Co27 O54
1.0
  14.1209132099999994   -4.2168848700000003   -0.0134986200000000
  14.1209132099999994    4.2168848700000003   -0.0134986200000000
  12.8685137100000002    0.0000000000000000    7.1821868699999998
Li Co O
26 27 54
direct
   0.0086631090728582    0.0061503838410485    0.3217587288351773 Li
   0.0039373312938272    0.0040224086439853    0.6560827270706795 Li
   0.0013222377920938    0.3230934586614524    0.0081505882920252 Li
  -0.0007768551922153    0.3390901760149044    0.3264319847315497 Li
   0.0009789704318895    0.3285623027656819    0.6702803910403248 Li
  -0.0047505731711839    0.6702291161229583   -0.0018535148112411 Li
  -0.0080713610638428    0.6785674420952894    0.3342541633460760 Li
  -0.0006663021386294    0.6659991859213836    0.6661095674624590 Li
   0.3333706727947724   -0.0033155249097495    0.0028413474708656 Li
   0.3313879314547826   -0.0010509667505660    0.3346245680055058 Li
   0.3294410301577322    0.0070688232637296    0.6646956921759131 Li
   0.3391814428752223    0.3360085823665192   -0.0025763262675215 Li
   0.3316436851907708    0.3272032268918517    0.3371154218645477 Li
   0.3350038213904883    0.3379310893209975    0.6614341989106466 Li
   0.3394200290360239    0.6596419771281274    0.0002408150664128 Li
   0.3345511878223995    0.6646406333494824    0.3306892238360171 Li
   0.3306452696294668    0.6688868839146583    0.6699709173055913 Li
   0.6716113848115980    1.0062544851377027   -0.0090131859765790 Li
   0.6604671457389244    0.0021435585450998    0.3407619875587542 Li
   0.6682643200238555    0.9977244694827321    0.6659479153624972 Li
   0.6672244738217248    0.3296641860196969   -0.0007973508366953 Li
   0.6647600961893386    0.3373108513156358    0.3284800322882401 Li
   0.6737740195457684    0.3334189644638394    0.6565403621536270 Li
   0.6657807546919174    0.6639486993194360   -0.0013263687666313 Li
   0.6636405178649764    0.6650464320227600    0.3349104883244197 Li
   0.6655290344942832    0.6698748530976897    0.6637322824063752 Li
   0.1669096753606239    0.1657752594955627    0.1677264911564139 Co
   0.1705656489595955    0.1582513640193154    0.5008209996897611 Co
   0.1606240765042249    0.1679021230912383    0.8392232875369253 Co
   0.1596044045683599    0.5012879774774303    0.1700436723231194 Co
   0.1646840282455025    0.4916892614432677    0.5073865228307604 Co
   0.1613727440548204    0.4937658660954127    0.8416507098269017 Co
   0.1618872147323190    0.8337980625368943    0.1706953344180139 Co
   0.1666007471293920    0.8352984372844717    0.4969321464574510 Co
   0.1680846212185568    0.8325123040210117    0.8307073390916101 Co
   0.5045073921885951    0.1660672327476517    0.1637637814310884 Co
   0.5009761126288885    0.1684743005057433    0.4935383968027666 Co
   0.5015932606816850    0.1641934582264747    0.8352705173880816 Co
   0.5047526625030113    0.5039575554845743    0.1606836399752699 Co
   0.4959070937282455    0.5056787632700593    0.4988065219404466 Co
   0.5063118010696638    0.4899007711979074    0.8338810398251386 Co
   0.4957371079008872    0.8375065027480191    0.1664368212267761 Co
   0.5013354265573295    0.8322036727960692    0.5007828906814832 Co
   0.4999472439706577    0.8362729428434078    0.8330858721013400 Co
   0.8353889384050862    0.1691992624941834    0.1623209915728429 Co
   0.8445488043376242    0.1571792089564459    0.5018421876471680 Co
   0.8348891988666052    0.1661690596056380    0.8317257336710335 Co
   0.8223750955054343    0.5067694231864175    0.1730393092533726 Co
   0.8361118518230188    0.5009405502269457    0.5004894173860096 Co
   0.8282950993855296    0.5000953159466544    0.8351693784534622 Co
   0.8322499677316852    0.8410258822990463    0.1604085564552042 Co
   0.8293575557690426    0.8328100254775387    0.5037825852074118 Co
   0.8343168783302365    0.8352981623910675    0.8341747016168040 Co
   0.2540044421864547    0.2496508831085897    0.2542880296827021 O
   0.2580634919994524    0.2458809124955402    0.5880035808108774 O
   0.2588375762825239    0.2484986561184700    0.9205944545290424 O
   0.2663345952112944    0.5815989042342213    0.2426592237234526 O
   0.2472351448693177    0.5888216679128327    0.5885089034729383 O
   0.2535477824568469    0.5890734551165463    0.9169999204928664 O
   0.2514709581503002    0.9208742189005050    0.2569604908595813 O
   0.2489357071918863    0.9225215965707800    0.5879637683676795 O
   0.2537294428160854    0.9200352235437863    0.9230328503908769 O
   0.5890772294087860    0.2477997645912833    0.2562416594411075 O
   0.5926140862862943    0.2520113633956605    0.5817710538838604 O
   0.5862166945128188    0.2438182111118846    0.9258340729549075 O
   0.5883972349632099    0.5806038774686377    0.2547325078871214 O
   0.5821058041470587    0.5890141200619771    0.5922553551518590 O
   0.5781808716193089    0.5922144765070989    0.9244673347507101 O
   0.5838580718699665    0.9211916367775792    0.2542816211542191 O
   0.5797461244795856    0.9190615017307131    0.5899778632327295 O
   0.5776600542496805    0.9185593881462190    0.9264704648040946 O
   0.9150443686180604    0.2521687162208905    0.2617838464226570 O
   0.9176541467054955    0.2610568765670620    0.5806773158602787 O
   0.9161700700195027    0.2569356684851579    0.9165634334595426 O
   0.9164814065520023    0.5948285567484591    0.2533262530964369 O
   0.9269844331944792    0.5847168408134471    0.5822278364210518 O
   0.9247430296993773    0.5804471193951963    0.9193219471475917 O
   0.9265095852294640    0.9158556804716098    0.2495413936515795 O
   0.9141609370932029    0.9173654039854207    0.5967540509610976 O
   0.9191624104880047    0.9323102837214672    0.9106079785125840 O
   0.0804188862594209    0.0857700419143252    0.0758129830444313 O
   0.0828641304297538    0.0757559307346614    0.4180854129404053 O
   0.0744903265775009    0.0926993918887825    0.7426149652498826 O
   0.0768002692185211    0.4163802471305854    0.0824192690558429 O
   0.0698853325212652    0.4217558143953777    0.4147268053736515 O
   0.0780882827950967    0.4259429131758115    0.7333566840830420 O
   0.0731032003849772    0.7457262046570544    0.0886677970833605 O
   0.0901612021378711    0.7421883488547956    0.4097038060495817 O
   0.0754727230043402    0.7575542977014718    0.7394815408464311 O
   0.4178141560016527    0.0828155575600356    0.0769670177018309 O
   0.4132897537073466    0.0745618021941888    0.4169158776315789 O
   0.4096783917296161    0.0789948577367284    0.7476721824824694 O
   0.4154780219718965    0.4146916838643397    0.0865362386887181 O
   0.4115599903818358    0.4057924592388986    0.4176528305342380 O
   0.4081523595861567    0.4155809982654043    0.7479837812808334 O
   0.4110105962268844    0.7544352175474150    0.0824597967668872 O
   0.4154500193677386    0.7507639530074405    0.4098257228971927 O
   0.4066018540247134    0.7518851852376545    0.7465593513049001 O
   0.7484837482823034    0.0840678789705800    0.0750087073185973 O
   0.7443783979033556    0.0792478289758808    0.4161569093486368 O
   0.7451937700230165    0.0828119294696993    0.7467280784073300 O
   0.7479718357757879    0.4127618504013996    0.0815624729812391 O
   0.7367577314286484    0.4205012016250963    0.4181002934396276 O
   0.7376787149182665    0.4131715392075651    0.7543486850595661 O
   0.7411245483562759    0.7546615271385554    0.0788248636731364 O
   0.7505213411528977    0.7454827709311693    0.4117202710514886 O
   0.7460076142589041    0.7443266924837180    0.7469606834677275 O
