Li26 Co27 O54
1.0
  14.1209132099999994   -4.2168848700000003   -0.0134986200000000
  14.1209132099999994    4.2168848700000003   -0.0134986200000000
  12.8685137100000002    0.0000000000000000    7.1821868699999998
Li Co O
26 27 54
direct
  -0.0010232806697641    0.0071460597184895    0.3277008292485022 Li
   0.0085390116172913   -0.0076546728808667    0.6662624349005736 Li
   0.0021977861551277    0.3358950037217763   -0.0063575024694735 Li
  -0.0015264498829005    0.3333868925187541    0.3351372170499241 Li
   0.0026141112913426    0.3308892953019289    0.6663660327674548 Li
  -0.0056638378458529    0.6687407372921458   -0.0022260190513582 Li
  -0.0062340387728755    0.6634648323656606    0.3448393314501413 Li
  -0.0006973588600598    0.6652979050671306    0.6668256163126425 Li
   0.3351012019308938    0.0049251547578509   -0.0076155441089384 Li
   0.3238468469589307    0.0042178096131167    0.3372720396484074 Li
   0.3382011009855818   -0.0049558232017554    0.6701451044153073 Li
   0.3303167937881046    0.3434701322561486   -0.0081605419096185 Li
   0.3367444180285546    0.3363349680226791    0.3258561359361762 Li
   0.3302513075656443    0.3355495621459305    0.6692786858849289 Li
   0.3297007365403393    0.6744526029200313   -0.0041389653139824 Li
   0.3292035413937298    0.6717445061055660    0.3301890923887448 Li
   0.3338020614923059    0.6640240999999840    0.6677142006573979 Li
   0.6723763635236411    0.9983417935029116   -0.0021958171889156 Li
   0.6681208368757512    0.0005886082261131    0.3315764787078547 Li
   0.6709575059197173    1.0055392376362697    0.6596713127232613 Li
   0.6648572584854414    0.3396389288650498   -0.0054402856703202 Li
   0.6595732343038482    0.3302281595807025    0.3394883958272059 Li
   0.6684071868010231    0.3427035283505973    0.6495202738125605 Li
   0.6646296145770965    0.6649751647966582    0.0089697872729229 Li
   0.6712191977552077    0.6665733418957319    0.3322255325210935 Li
   0.6560586817876251    0.6673940120545274    0.6768394458862882 Li
   0.1703858301291354    0.1651532745860684    0.1629595298501340 Co
   0.1727243489013752    0.1655315188654728    0.4948992439023064 Co
   0.1562959674180490    0.1818946472807955    0.8294294041924669 Co
   0.1773904454757242    0.4913091273937959    0.1666044803449199 Co
   0.1676835254822645    0.4990365686483613    0.4992497654605075 Co
   0.1647501058974713    0.4954645291079436    0.8357715069567283 Co
   0.1613033954336884    0.8434414359596867    0.1671499989943104 Co
   0.1710300025679848    0.8324321326345701    0.4994349648529499 Co
   0.1646016238757351    0.8317889112089929    0.8380224537946797 Co
   0.4978381683947347    0.1618170463361903    0.1726758903096123 Co
   0.5058565768305696    0.1551618686492285    0.5021813318016635 Co
   0.4987612207448091    0.1616024299203757    0.8397450727043169 Co
   0.4956276592190587    0.5013249285988025    0.1686968866131342 Co
   0.4860797918936471    0.5049609850259494    0.5077968658334727 Co
   0.4936286272414753    0.5041738587909657    0.8339468903560391 Co
   0.5066002750695024    0.8303755926358802    0.1630096822806490 Co
   0.5017652909007351    0.8371927080593299    0.4957886332745536 Co
   0.5002023418088156    0.8332345463426695    0.8325385316587370 Co
   0.8384519817414950    0.1591706370029515    0.1687820178050228 Co
   0.8405562668898912    0.1687689274392255    0.4969331172941090 Co
   0.8293328027401816    0.1721410583481759    0.8326848165579003 Co
   0.8394951942093012    0.4922725935675364    0.1725435470723673 Co
   0.8331672954407999    0.4992494198767566    0.5030744681305120 Co
   0.8303848399503828    0.4928418071674637    0.8382359685246885 Co
   0.8363271562355321    0.8317517082518416    0.1673627898517410 Co
   0.8439399718405622    0.8273794427314618    0.5005193235041036 Co
   0.8316886889674052    0.8318520217111515    0.8365069109012472 Co
   0.2457421551213870    0.2537715400066257    0.2605608381865112 O
   0.2552416210340662    0.2547590208788902    0.5854669417479587 O
   0.2494237697679341    0.2534352684071873    0.9230077181697629 O
   0.2580572122104355    0.5880074040593164    0.2507694750989983 O
   0.2557329718032627    0.5855717076365827    0.5868139551859420 O
   0.2556835510544710    0.5889055337332285    0.9128249135591523 O
   0.2522062282707112    0.9301644557793091    0.2457160679571551 O
   0.2575814255279334    0.9170428696033062    0.5821382908726002 O
   0.2544680568745133    0.9183418291068690    0.9210394207598646 O
   0.5880734742419764    0.2537380624452131    0.2492661324903096 O
   0.5867724342902261    0.2524316764467646    0.5878845837697646 O
   0.5858097145631651    0.2495369412125600    0.9235775681057409 O
   0.5845002695910491    0.5976694180893892    0.2384099292519116 O
   0.5854919879177249    0.5842222800468486    0.5861334367543264 O
   0.5801201621998222    0.5978791107851826    0.9205827733146466 O
   0.5979185349639982    0.9106052035244160    0.2552307960511314 O
   0.5834350079414921    0.9218930789771382    0.5876251790324569 O
   0.5807257523115189    0.9220924287431337    0.9246214369148621 O
   0.9267305501923414    0.2495968719265758    0.2488850368890789 O
   0.9207761345766736    0.2519443216955691    0.5885957559093891 O
   0.9159616407636089    0.2537586815437775    0.9198446738766171 O
   0.9276748746260005    0.5850400463887381    0.2490633022612452 O
   0.9234903275344515    0.5824622091816576    0.5863269951388626 O
   0.9205363186956070    0.5955217385601215    0.9102805841718100 O
   0.9088720049989025    0.9268336972985574    0.2554544788994063 O
   0.9179989852901740    0.9173997918757495    0.5916673575036422 O
   0.9207483527803728    0.9293116092478451    0.9054928423228223 O
   0.0797842255153087    0.0759928755132236    0.0834485925101096 O
   0.0737282069897950    0.0821493158019727    0.4199525419953728 O
   0.0699264470977085    0.0779065380858504    0.7559881396240098 O
   0.0717136443389190    0.4223653944137752    0.0798963328857370 O
   0.0883526324351750    0.4126382455085809    0.4091855548523003 O
   0.0725335469565078    0.4096230864419939    0.7573627134326228 O
   0.0787186811933208    0.7558271428449882    0.0730736050274671 O
   0.0773592495042072    0.7468823258178569    0.4137169235599923 O
   0.0790372959701992    0.7491641103698756    0.7449203506173109 O
   0.4107480563365913    0.0798770702149763    0.0809907780086226 O
   0.4055204514884889    0.0877386677676348    0.4163000631689595 O
   0.4111907929356534    0.0748469661115567    0.7545600660492658 O
   0.4045417445613569    0.4195845055793318    0.0825129876853700 O
   0.4087854340441830    0.4165565809347129    0.4126329698204198 O
   0.4101271826141767    0.4074472297440686    0.7526778084179837 O
   0.4155053961296765    0.7421611753270253    0.0818481510749151 O
   0.4180705591126488    0.7387726099188932    0.4183504450246108 O
   0.4155964839398691    0.7402576105858576    0.7525534618330392 O
   0.7411230211163051    0.0874861438672394    0.0731516336918600 O
   0.7532153602135974    0.0726745335519673    0.4142457851341164 O
   0.7522923260799106    0.0758633419053489    0.7430914141100052 O
   0.7454346211786330    0.4174755256468584    0.0762234418984788 O
   0.7449026936379082    0.4075489553152855    0.4200711134982799 O
   0.7456515660639602    0.4175278686046271    0.7432219478803640 O
   0.7570054281299387    0.7341701514830616    0.0801029960057269 O
   0.7457016684073466    0.7463612405592021    0.4142002927388926 O
   0.7485874112788660    0.7437730159240994    0.7445749459445034 O
