Li23 Co27 O54
1.0
  14.1209132099999994   -4.2168848700000003   -0.0134986200000000
  14.1209132099999994    4.2168848700000003   -0.0134986200000000
  12.8685137100000002    0.0000000000000000    7.1821868699999998
Li Co O
23 27 54
direct
  -0.0006666255295368   -0.0017643044945447    0.6625356224385093 Li
   0.0094002955860611    0.3289177990135708   -0.0054115016169274 Li
  -0.0032213105283758    0.3326122746645237    0.3336733997248054 Li
   0.0045237909766596    0.3303388449570987    0.6635091917868338 Li
  -0.0020982844731484    0.6717520421590925   -0.0045529679635902 Li
   0.0070107904197408    0.6543273335936451    0.6721954734475359 Li
   0.3333925152644467   -0.0020394618797513    0.0007967655828540 Li
   0.3288690423389472    0.0028997499187374    0.3353785795474878 Li
   0.3347771275730402   -0.0022384147266619    0.6685009488612994 Li
   0.3334228971544654    0.3258852887280446    0.0039489640758940 Li
   0.3324334141553602    0.3342365366420276    0.3330754937294378 Li
   0.3351011288847629    0.3332075340272552    0.6617223737348688 Li
   0.3268359698019286    0.6661529449502328    0.0032872970638396 Li
   0.3311480420409999    0.6642206463033012    0.3347995863945625 Li
   0.3361941443947999    0.6533671412546594    0.6758849935213846 Li
   0.6701622550074101    0.9986045937708402   -0.0022768560786516 Li
   0.6667539951799211    0.0085847911933564    0.3269549814222749 Li
   0.6614694481691539    1.0005539043433505    0.6707896321318012 Li
   0.6625071518205319    0.3327302450192474    0.3392791807807248 Li
   0.6681491424014854    0.3272700267148322    0.6719019696813052 Li
   0.6711136195277964    0.6698222620629128   -0.0052946706031486 Li
   0.6679502099284841    0.6611355478865618    0.3361296798981695 Li
   0.6706620919981126    0.6670548309542492    0.6648542159424417 Li
   0.1722705590822189    0.1675453187455710    0.1587091358530250 Co
   0.1649625302247872    0.1638029008556872    0.5065002587106137 Co
   0.1684414695546608    0.1607233555777609    0.8373608839336192 Co
   0.1712157312401820    0.4944490315126186    0.1618565536296493 Co
   0.1707293008934977    0.4970118772666866    0.4950309009725536 Co
   0.1577606796351425    0.5024919173471681    0.8360987586705412 Co
   0.1659477394545828    0.8392413622885309    0.1632940523820988 Co
   0.1589507170899475    0.8332105510443182    0.5034690898434157 Co
   0.1653351814308711    0.8355477389940281    0.8323559486920293 Co
   0.5000610051077958    0.1643999285422064    0.1676647571423500 Co
   0.5006563668747082    0.1628461328072706    0.5037138905358641 Co
   0.5048240113075577    0.1690599160281731    0.8244832446390985 Co
   0.5018991934729382    0.4968777154194365    0.1665549668348839 Co
   0.5020880753951933    0.5003576565051336    0.4963596406597423 Co
   0.5011718081561507    0.5037583018216059    0.8284345308211480 Co
   0.4961194444750708    0.8324321763010194    0.1703581479768245 Co
   0.4991358476704153    0.8344126066099612    0.5026169221880668 Co
   0.4966418800825919    0.8379505142598591    0.8328641411247407 Co
   0.8339402827917537    0.1622346926632682    0.1708123811425298 Co
   0.8344187705761623    0.1722662271424711    0.4905318793745223 Co
   0.8312057323880031    0.1652227053283947    0.8307423449459309 Co
   0.8371542941916960    0.4956016913207841    0.1666263853841959 Co
   0.8309534002597353    0.4960714173174255    0.5067335731397038 Co
   0.8332821776553456    0.5038200862196176    0.8319322747165339 Co
   0.8388475314081019    0.8339824151744027    0.1594026443449545 Co
   0.8325986496247607    0.8328935507447056    0.4998133602200008 Co
   0.8271092503239206    0.8397416624328944    0.8291770387631636 Co
   0.2560846244670049    0.2460421603565299    0.2553660704320160 O
   0.2542926828417571    0.2554467114029714    0.5822455861681403 O
   0.2642769652784583    0.2442254963741592    0.9159907264500941 O
   0.2567686875071984    0.5810199913068557    0.2484209277144668 O
   0.2525013024824788    0.5908189850885028    0.5841588495238385 O
   0.2508871780996996    0.5819422171378879    0.9291827149626106 O
   0.2511761914529703    0.9281996920467213    0.2475566864970491 O
   0.2537008287524919    0.9188834207444029    0.5845310847075083 O
   0.2573648718439126    0.9155873233518925    0.9182124113985850 O
   0.5919675566118254    0.2550096249679367    0.2487082108191034 O
   0.5813777429563862    0.2578700441028801    0.5882266176838957 O
   0.5824937882890641    0.2568163507905292    0.9158540647146020 O
   0.5810870159809345    0.5890680089788769    0.2516179473217128 O
   0.5879455096034322    0.5912471012800291    0.5802964918906679 O
   0.5918629059587837    0.5864421457577778    0.9159984576421332 O
   0.5982765358898965    0.9109585070134529    0.2552116098408904 O
   0.5874425208239564    0.9222003337511793    0.5831358364442759 O
   0.5830175254371180    0.9238800066946992    0.9210244793588072 O
   0.9165302706534124    0.2613126064123816    0.2511711575460977 O
   0.9225179591232302    0.2635811266303771    0.5770799538688265 O
   0.9271569541121301    0.2507358282012909    0.9150055994329171 O
   0.9139108564502939    0.5903328466536509    0.2554497364404733 O
   0.9192715637577693    0.5938000339935141    0.5812597225121685 O
   0.9136892937723770    0.5846843149553632    0.9271758789651405 O
   0.9168321467256120    0.9222374959461235    0.2553068395218496 O
   0.9164503751849359    0.9276822115737090    0.5845874550201169 O
   0.9272230885367378    0.9165026418169959    0.9163198137828521 O
   0.0760839706369378    0.0877753349338149    0.0745746956620568 O
   0.0786297564110468    0.0790998558274411    0.4151860523417044 O
   0.0800176849102863    0.0756683166894758    0.7522698993519332 O
   0.0812320607310976    0.4168726110878986    0.0736317322870867 O
   0.0811168333425277    0.4153422715362454    0.4098157615614443 O
   0.0810850778936593    0.4099949170697314    0.7483945291508345 O
   0.0853764619203539    0.7423442107703457    0.0739551197526536 O
   0.0724170813385611    0.7465790009743922    0.4241696644633737 O
   0.0810568533832232    0.7371713492710477    0.7517422369873218 O
   0.4145141599182156    0.0771891815553923    0.0823985442452586 O
   0.4120594190329825    0.0726741567871625    0.4202535687969847 O
   0.4181249411797349    0.0735563327723954    0.7481474354067171 O
   0.4161339456225256    0.4110235917625298    0.0775936135404176 O
   0.4132276334127052    0.4188052301559854    0.4033057436344181 O
   0.4184836368764814    0.4128850456155766    0.7482921371824803 O
   0.4099479454491589    0.7532373438786378    0.0766046884891796 O
   0.4117739913465542    0.7489847823905774    0.4136490577651899 O
   0.4081631761393777    0.7529746481150370    0.7477460306465671 O
   0.7433972612702597    0.0790558980620562    0.0843456185396108 O
   0.7464318403592791    0.0771585372968169    0.4155264718330965 O
   0.7527041176678144    0.0798466817986763    0.7391589829473928 O
   0.7409340564826932    0.4170428106904467    0.0830762208599810 O
   0.7397669243497943    0.4168276974822477    0.4162227851528228 O
   0.7501854906437910    0.4117269885867041    0.7484431959408256 O
   0.7500331569385658    0.7367099735730174    0.0830204462938602 O
   0.7483066669525750    0.7439064056268083    0.4164422449280720 O
   0.7362843734977245    0.7563037225482079    0.7492480520248014 O
