Li27 Co27 O54
1.0
  14.1209132099999994   -4.2168848700000003   -0.0134986200000000
  14.1209132099999994    4.2168848700000003   -0.0134986200000000
  12.8685137100000002    0.0000000000000000    7.1821868699999998
Li Co O
27 27 54
direct
   0.0018873752087489   -0.0034838030191685    0.0016917810203200 Li
   0.0099203539701893   -0.0003175407788907    0.3228970227227523 Li
  -0.0015047179092634   -0.0041662485582298    0.6725361999085585 Li
  -0.0054494489851034    0.3336252249528709    0.0093658879292203 Li
   0.0023595691795084    0.3253234253925995    0.3369891321221835 Li
  -0.0070568523681506    0.3337794026237983    0.6712979212334661 Li
  -0.0006079631977983    0.6714671528771089   -0.0039742871803520 Li
   0.0053515612250346    0.6645250061210807    0.3334936678416551 Li
   0.0056042581199512    0.6635100803518295    0.6708778326755882 Li
   0.3232164326652968    0.0033879321991676    0.0026174196607184 Li
   0.3290023064651512    0.0057531572676127    0.3341832511993045 Li
   0.3280834453780472   -0.0011219378028522    0.6714787500632261 Li
   0.3201660750638958    0.3353680817771538    0.0113261064411365 Li
   0.3376688279620923    0.3214501715889698    0.3357413128773315 Li
   0.3256468602349973    0.3380023189549931    0.6751033709598986 Li
   0.3167911685768950    0.6866298703245782   -0.0062908805989344 Li
   0.3324464467609676    0.6631282699024023    0.3375666889816403 Li
   0.3347913669181024    0.6663008501206413    0.6675278390144916 Li
   0.6619916644155038    1.0104362377685510   -0.0033121236521351 Li
   0.6547266076308915    0.0049285508867536    0.3389046454609361 Li
   0.6641969852043625    0.9987438754285509    0.6697718546517173 Li
   0.6623084572407943    0.3329598895868589    0.0073555934814399 Li
   0.6692309779909973    0.3351305814076958    0.3304133351555427 Li
   0.6643102503405658    0.3358732272430377    0.6627405550633181 Li
   0.6683177614236147    0.6662046683795430   -0.0003848682389568 Li
   0.6670490934309713    0.6678083513290104    0.3270516352023170 Li
   0.6669005605405643    0.6635809829780314    0.6715906313534891 Li
   0.1596281090414600    0.1770679026098021    0.1616261868772322 Co
   0.1642336413124360    0.1661277114996494    0.5042913672763571 Co
   0.1620266510967628    0.1543446095981446    0.8544433684366650 Co
   0.1515211380641590    0.5099570296362557    0.1711120365252719 Co
   0.1546971883236121    0.5071511798928595    0.5041980612415609 Co
   0.1708333864537793    0.4932131817486301    0.8346049146415382 Co
   0.1590119977953415    0.8386096846926266    0.1704642268040762 Co
   0.1632127607309866    0.8302028908932293    0.5041900133558388 Co
   0.1714497845642335    0.8331518050467170    0.8332042515665233 Co
   0.5033899189188048    0.1617803099133249    0.1711092418894486 Co
   0.4974758696550930    0.1765802447086453    0.4976808573986731 Co
   0.4961068317945160    0.1754922191265634    0.8320353280245808 Co
   0.5063657387207019    0.4944321448176857    0.1628134941911115 Co
   0.4936878639905909    0.4930142134620730    0.5088421389780713 Co
   0.4927138718561022    0.5105332198311722    0.8351931934762434 Co
   0.4951054274046589    0.8364322860947462    0.1733771208229961 Co
   0.4962905010325940    0.8370922407906347    0.5000593962654292 Co
   0.4943842093830849    0.8300310601570983    0.8433035831684752 Co
   0.8339176771147947    0.1680032475263449    0.1609587354816948 Co
   0.8262999179996656    0.1698599718909320    0.4989586250372007 Co
   0.8413076828471013    0.1625448431856263    0.8313393090039233 Co
   0.8410743675303827    0.4978019416972080    0.1603164499020438 Co
   0.8318607431527673    0.5037578553103330    0.5018489538618899 Co
   0.8277299840064331    0.5023650774023259    0.8368157791420672 Co
   0.8287811645825052    0.8413341116323816    0.1632991228608253 Co
   0.8396992464234745    0.8284629318512029    0.5001535604079735 Co
   0.8365820425841928    0.8262917035817212    0.8389908813875614 Co
   0.2572433732507219    0.2531907083221492    0.2537214665069047 O
   0.2590197309835892    0.2563838042034605    0.5783267131565846 O
   0.2550210708679517    0.2498797241068204    0.9212206648626204 O
   0.2541530416109807    0.5946627748515536    0.2473850881374411 O
   0.2581074491100152    0.5845352065185294    0.5848740599437749 O
   0.2521087726000143    0.5868333831999638    0.9203405996894197 O
   0.2504030338118172    0.9186469016435055    0.2555364094166275 O
   0.2485745448616549    0.9192259254081324    0.5871749214335384 O
   0.2472690532174899    0.9228380951652011    0.9217660068895388 O
   0.5898612886031143    0.2613701483926787    0.2473900618672784 O
   0.5926490209211152    0.2473347064085155    0.5868301366119633 O
   0.5779450420379799    0.2592179729102410    0.9244651322708552 O
   0.5842217865316998    0.5910511561815922    0.2510108265371078 O
   0.5904191959590059    0.5844220831954161    0.5916747810484988 O
   0.5988797396718577    0.5849879715481947    0.9115642924785051 O
   0.5714425241954926    0.9197464005605689    0.2702022540939413 O
   0.5933008544322428    0.9088388228035404    0.5920333640650028 O
   0.5790590902021755    0.9199301352577252    0.9328648825843556 O
   0.9285648883328910    0.2420516110547994    0.2567858884712335 O
   0.9203453507371382    0.2511347375880893    0.5888942594637848 O
   0.9228117376381820    0.2454932974642857    0.9223535206193695 O
   0.9160954940381754    0.5931596254873706    0.2538370577054329 O
   0.9296891787782912    0.5849075719180548    0.5821008639454063 O
   0.9149248608777694    0.5908682669294612    0.9260963455077834 O
   0.9152146514676509    0.9101807654231275    0.2721510253983566 O
   0.9241336471742471    0.9123700707187566    0.5893627747841368 O
   0.9207191738421397    0.9212966975190212    0.9156868824816967 O
   0.0790662641145475    0.0821397516978090    0.0782631517875900 O
   0.0728254106698908    0.0800622054473024    0.4160532042651992 O
   0.0820743961872497    0.0794375456782273    0.7469531181306482 O
   0.0724801733999329    0.4087037409118974    0.0927129762479032 O
   0.0787182835827468    0.4181292162373260    0.4130189372692873 O
   0.0882765329596156    0.4070464422355621    0.7439937695608717 O
   0.0730925107274113    0.7407662212578988    0.0877934118307043 O
   0.0772130053767437    0.7472393942591758    0.4219708827991349 O
   0.0824766368830955    0.7418894691037887    0.7486729200908436 O
   0.3992345807052980    0.0854076827152509    0.0854913945486195 O
   0.4108057861638975    0.0796908059337446    0.4142748954547092 O
   0.4137448824183547    0.0833569970992655    0.7439769527184207 O
   0.4169404724205377    0.4200276202021909    0.0690504303147004 O
   0.4166806088962604    0.4087037047399196    0.4138034180010093 O
   0.4147635212960694    0.4098483554186359    0.7490345951350352 O
   0.4245449360166457    0.7415425409500164    0.0769809006833221 O
   0.4141201624662765    0.7416407118480449    0.4139158594024229 O
   0.4078083401985215    0.7491442387346479    0.7505102713255571 O
   0.7470634440405360    0.0866047335504838    0.0708950398149610 O
   0.7421454404691058    0.0782306579152330    0.4185260602644112 O
   0.7386073249824153    0.0862900524544968    0.7437853446825711 O
   0.7493307857730626    0.4109103021110077    0.0823557390733087 O
   0.7571797143092834    0.4078331576207899    0.4101898129387891 O
   0.7411808255914445    0.4188404933950845    0.7451950296990965 O
   0.7444789622602421    0.7519645780086818    0.0784643313231945 O
   0.7525092134963233    0.7418109014705764    0.4145231342850267 O
   0.7507671685630031    0.7422295299149373    0.7482144480820172 O
