Li23 Co27 O54
1.0
  14.1209132099999994   -4.2168848700000003   -0.0134986200000000
  14.1209132099999994    4.2168848700000003   -0.0134986200000000
  12.8685137100000002    0.0000000000000000    7.1821868699999998
Li Co O
23 27 54
direct
   0.0085468713394765    0.0026234440383972   -0.0084429387318612 Li
   0.0056541110769742   -0.0047209492332184    0.3331536477175472 Li
   0.0171582695804223   -0.0074326768340191    0.6565098641694058 Li
  -0.0052200460743850    0.3400296305405899    0.0002445965209642 Li
  -0.0055347763294968    0.3380608274990679    0.6701894111920060 Li
   0.0042901383409284    0.6646771559479849    0.0005157359217181 Li
  -0.0127931165208437    0.6696705939191875    0.3443090574004846 Li
  -0.0102258129493067    0.6751248467234817    0.6626799360826807 Li
   0.3290057634902710    0.0050507248647145   -0.0004727512704301 Li
   0.3332804148537741    0.3329603481184417   -0.0000074684319763 Li
   0.3330318850157700    0.3308174747071898    0.3288857552625603 Li
   0.3366271094483884    0.3311015739247888    0.6691535017733599 Li
   0.3372541340247426    0.6658868124508466   -0.0053147882671471 Li
   0.3317422901513208    0.6756194919633605    0.6590948970730152 Li
   0.6681095495160850    0.9971893168208021   -0.0007899067446155 Li
   0.6574169730868139   -0.0026699678391854    0.3425235624498962 Li
   0.6608531594868787    1.0137900484643920    0.6583070338922337 Li
   0.6728280801983693    0.3333506469897403   -0.0081059379724542 Li
   0.6732666997786150    0.3372545521914396    0.3264690559303582 Li
   0.6601684346314325    0.3440047077063438    0.6642930744100760 Li
   0.6603891548937691    0.6740168980362491   -0.0038443961107265 Li
   0.6663219929403645    0.6700491397935764    0.3335575768694392 Li
   0.6609268271503741    0.6644222938411057    0.6727792409744023 Li
   0.1663398849919577    0.1657856318768526    0.1650462629163282 Co
   0.1641262412327858    0.1621985008017307    0.5031913042049436 Co
   0.1621334078615692    0.1713756969608662    0.8381876422336312 Co
   0.1633306284277105    0.5083437416210695    0.1662980167929327 Co
   0.1575891394772758    0.5082394566631363    0.5047625107773974 Co
   0.1639600776689812    0.5047879540747602    0.8343840549924818 Co
   0.1620600117000639    0.8289423744448556    0.1765505128467529 Co
   0.1646306033624071    0.8341771231517723    0.5073875512294699 Co
   0.1673308906084308    0.8406275933577008    0.8285383798747156 Co
   0.4949821671360104    0.1699651996231391    0.1709790022410675 Co
   0.4943474860306727    0.1670935733778084    0.5003786650179364 Co
   0.4968393206321275    0.1707269935797743    0.8371234912386439 Co
   0.4976989656837332    0.5009536333178629    0.1671688619789922 Co
   0.5058059744295589    0.5021097103752448    0.4973873150522791 Co
   0.5122375810203663    0.4980177424226122    0.8244898238371253 Co
   0.5021189599247933    0.8353160067992652    0.1622018795093643 Co
   0.4966366822309620    0.8335062342586029    0.5002193485628901 Co
   0.4919294837608873    0.8382466302483225    0.8344926418300069 Co
   0.8418479850728502    0.1629288975282199    0.1668256035959811 Co
   0.8386583210658809    0.1602132279413261    0.4971926492841421 Co
   0.8336306405451415    0.1573877348031050    0.8390393101617757 Co
   0.8434307693629753    0.4965413089055190    0.1630298143617718 Co
   0.8262728952482743    0.5067975104216744    0.5046458817954915 Co
   0.8369738775042452    0.4922190289272206    0.8320106501552154 Co
   0.8390888328991591    0.8356422656588800    0.1617199128641345 Co
   0.8374022586646303    0.8338379989997405    0.4933871481679831 Co
   0.8281807045158390    0.8343937439891650    0.8368106474022704 Co
   0.2529144725399104    0.2626860547922009    0.2454613414741288 O
   0.2577757742324045    0.2534015455679025    0.5865725793259156 O
   0.2511910555733015    0.2561661013820648    0.9166581353932443 O
   0.2649914170687025    0.5856233458912584    0.2451008207197765 O
   0.2566351318426057    0.5889879019790377    0.5845018246269158 O
   0.2512829582198134    0.5968862103709380    0.9176785459639726 O
   0.2479546990527842    0.9264147186136589    0.2526527218819221 O
   0.2504717654770490    0.9130557816854514    0.5946538579379506 O
   0.2526180161922162    0.9139552860203084    0.9252801471747139 O
   0.5867621643837144    0.2547706554775182    0.2534758503213950 O
   0.5881294484603088    0.2558523321707901    0.5828156759625645 O
   0.5797950202064781    0.2510503974279722    0.9276358815976802 O
   0.5867287219074646    0.5853217745629388    0.2553561290892472 O
   0.5884336000468836    0.5857168135909263    0.5817531776853384 O
   0.5914157749082110    0.5932335469287515    0.9095605666674245 O
   0.5873559021941070    0.9178979574062945    0.2519410341702982 O
   0.5883315709742895    0.9249830602219850    0.5755377494954566 O
   0.5854037099802614    0.9177936543120166    0.9193446295450317 O
   0.9265596965233335    0.2460295843951350    0.2535437939423364 O
   0.9197005454846736    0.2543251244984907    0.5874565532227713 O
   0.9137908332926993    0.2605211457122941    0.9156216900893647 O
   0.9200352920113878    0.5898471735702862    0.2540189235104632 O
   0.9265082086141749    0.5909134556582114    0.5800909986577307 O
   0.9222837259836825    0.5824563745088525    0.9230445762837681 O
   0.9175855084954351    0.9198663253086002    0.2516872997931225 O
   0.9200996984237197    0.9130242932457999    0.5917814988819922 O
   0.9116039978163980    0.9199846323225594    0.9303333006715792 O
   0.0860661404846840    0.0713599203239020    0.0852162167638516 O
   0.0796308998755570    0.0821280803565435    0.4161623713955454 O
   0.0853997264804135    0.0915739645810787    0.7302213143708639 O
   0.0762812393000171    0.4090917256548119    0.0864395967288329 O
   0.0764098643587364    0.4174772402976288    0.4137177698435624 O
   0.0797901102280208    0.4235762805875605    0.7386209807253010 O
   0.0811728676312099    0.7461974181546241    0.0775799400980906 O
   0.0799334495631296    0.7434610712060932    0.4127962731804113 O
   0.0818841119494547    0.7493707380857522    0.7408765774613647 O
   0.4066638179753337    0.0835469905691151    0.0851647060355911 O
   0.4139804338341954    0.0827445302826058    0.4100059082850313 O
   0.4123195183110466    0.0841467738865352    0.7446435386252416 O
   0.4225329514344756    0.4061230762373634    0.0764786253375183 O
   0.4203237734025801    0.4060328252125542    0.4122753087673999 O
   0.4189958682798621    0.4052836872083778    0.7516683379474891 O
   0.4095756361932283    0.7491010709080437    0.0830846214153614 O
   0.4061917122955795    0.7491407423040497    0.4181314682933475 O
   0.4174430760679772    0.7453266080406800    0.7431644886736030 O
   0.7345799443974428    0.0833803515293644    0.0898820070257266 O
   0.7461387311278099    0.0775260533382294    0.4189086823051514 O
   0.7547419875742949    0.0712897014140863    0.7444528369421969 O
   0.7401955379985309    0.4216063723660993    0.0820951214306655 O
   0.7430267384321354    0.4157419336105274    0.4081323738138183 O
   0.7493652521031412    0.4026046133484155    0.7534697262595438 O
   0.7436156083039376    0.7406641938379472    0.0890105710695289 O
   0.7421980988914322    0.7573545043334412    0.4060360218766398 O
   0.7463459133093655    0.7464248398985216    0.7446649559329805 O
