Li24 Co27 O54
1.0
  14.1209132099999994   -4.2168848700000003   -0.0134986200000000
  14.1209132099999994    4.2168848700000003   -0.0134986200000000
  12.8685137100000002    0.0000000000000000    7.1821868699999998
Li Co O
24 27 54
direct
  -0.0087405942585765    0.0030668296550792    0.0058208650036490 Li
  -0.0065874101936148    0.0099154153670779    0.3277719925222685 Li
   0.0102691462072365   -0.0017419384023858    0.6575287101551869 Li
  -0.0020110698409892    0.3377386369920468   -0.0003978409256182 Li
  -0.0039499721289250    0.3405889033865916    0.3319393908985921 Li
  -0.0047437659997112    0.3382801570223816    0.6670930440048649 Li
  -0.0014153167077491    0.6620257013438630    0.0100917522554267 Li
   0.0044699516702003    0.6709450541260059    0.3216672241162897 Li
  -0.0047810010702257    0.6710993804403085    0.6696895570747603 Li
   0.3287314641173343   -0.0006907064749609    0.0035361303845631 Li
   0.3312944771301959    0.0017833187555147    0.3316991482112469 Li
   0.3318452022161505    0.0076473051438996    0.6618229207305475 Li
   0.3291674812424712    0.3325760581295012    0.0023696525374123 Li
   0.3368004223150091    0.3270416241882987    0.3374125841990480 Li
   0.3354738310638571    0.3339619525277335    0.6622404890151981 Li
   0.3371214902927250    0.6584250709506154    0.0003044008535135 Li
   0.6710610070444836    0.9965556168538086   -0.0015566720296788 Li
   0.6570251778277740    1.0063809946778408    0.6679568966856854 Li
   0.6599112141777469    0.3400168943000316    0.0013124049497168 Li
   0.6693123645763615    0.3334295490898371    0.3298525387132352 Li
   0.6677203949919428    0.3449867192659198    0.6561863943264804 Li
   0.6791567681250944    0.6584123389769236   -0.0047429585121354 Li
   0.6724524755101189    0.6533336272690978    0.3370743659525167 Li
   0.6645741969207024    0.6679189469573183    0.6708343732672728 Li
   0.1659383297682539    0.1690635340800028    0.1662811494823720 Co
   0.1613790127125899    0.1653552049870251    0.5031099013861502 Co
   0.1647895864903014    0.1674252760855897    0.8405546390415615 Co
   0.1753365077569610    0.5109622435672824    0.1523175626469574 Co
   0.1692369140050611    0.5024070515552099    0.4957348479154304 Co
   0.1625607330578001    0.5036089707331317    0.8350994312622273 Co
   0.1615656202898736    0.8494719918193885    0.1555432479603975 Co
   0.1692067428982225    0.8373152678594873    0.4944145779779212 Co
   0.1655900527306569    0.8349989755264604    0.8335210980746697 Co
   0.5022632763155015    0.1694375878604557    0.1610563335242755 Co
   0.4995863823689526    0.1631293631928034    0.5037332840027012 Co
   0.5131172800493062    0.1641234067154185    0.8246467179290462 Co
   0.4909856416145386    0.5053463556994831    0.1713009414702880 Co
   0.5029204282521871    0.4971371900484285    0.5005243875321150 Co
   0.5030925766168830    0.4983153416010111    0.8333005536030934 Co
   0.4933869263505776    0.8343299847911486    0.1667279142593587 Co
   0.5058481590654473    0.8268592617261536    0.4970815478003573 Co
   0.4946012210512384    0.8500995320909950    0.8258355413466992 Co
   0.8332282886966108    0.1682966893749032    0.1688166496892123 Co
   0.8285862208391190    0.1644595335072955    0.5076126308772790 Co
   0.8309808684587104    0.1607884189136943    0.8391649824444593 Co
   0.8376486776348979    0.4984727516368772    0.1639491950310594 Co
   0.8332255789523539    0.5024977414148648    0.5004228229287526 Co
   0.8341899423490524    0.5094438583835139    0.8215809799111318 Co
   0.8404331530241211    0.8263150771450593    0.1687164324300260 Co
   0.8309109954424616    0.8287713426434793    0.5056082292562104 Co
   0.8367741684451524    0.8411236457061189    0.8238486420501350 Co
   0.2585641057292444    0.2582154370527971    0.2475040136825039 O
   0.2549990616470814    0.2477550769350126    0.5932386278049518 O
   0.2418415468180795    0.2511985753325480    0.9337466173534616 O
   0.2586010841575212    0.5865864267023111    0.2524754786138741 O
   0.2556563463683021    0.5828192723979315    0.5872079119113066 O
   0.2473405070848015    0.5795126734072312    0.9288792656863473 O
   0.2569172668957176    0.9130374001822317    0.2580635958696355 O
   0.2537377244134333    0.9196868783905792    0.5879174027655042 O
   0.2562237383707451    0.9221657689126608    0.9194306145484846 O
   0.5966993804781282    0.2411136405867821    0.2545832227123918 O
   0.5923080404298663    0.2527796435164513    0.5794840607532616 O
   0.5784842405642285    0.2557802339479042    0.9216156017008433 O
   0.5722414551238753    0.5990984058214489    0.2547833051095005 O
   0.5835881050701672    0.5925969370648276    0.5852677411564183 O
   0.5869383399732244    0.5845507080637922    0.9173411882088393 O
   0.5730707817090720    0.9207736263205969    0.2616110524411850 O
   0.5859057995087753    0.9311432387649043    0.5740269537352718 O
   0.5816211288452582    0.9280944347507745    0.9176596178902227 O
   0.9219414034682409    0.2627492030344371    0.2401446198057859 O
   0.9297156921225636    0.2428554878557773    0.5847968806476188 O
   0.9302104534914379    0.2497068513734762    0.9115546708650012 O
   0.9245144164112450    0.5878373486019536    0.2504032008386097 O
   0.9131311241904800    0.5842165987829481    0.5937360852428809 O
   0.9239334898989646    0.5854354061280973    0.9198113752359411 O
   0.9140404885398304    0.9163113659994963    0.2613523389590902 O
   0.9202879044599230    0.9192215276220617    0.5913113532495826 O
   0.9265145833473434    0.9166804122477241    0.9162812440068674 O
   0.0735914209092315    0.0830578049960851    0.0780370854849368 O
   0.0835787628161202    0.0730495508546088    0.4127601843688066 O
   0.0745960604209905    0.0796738629761343    0.7481963467512472 O
   0.0789125948650616    0.4169142971302882    0.0769093985657198 O
   0.0821836486771207    0.4156178760649208    0.4119595127979213 O
   0.0927847854038064    0.4098102453718587    0.7451136012912526 O
   0.0840531145034544    0.7408888477515080    0.0845386300518355 O
   0.0781205254643944    0.7475162347421443    0.4104485454495675 O
   0.0856701227893245    0.7554141179780420    0.7363556141538308 O
   0.4133963478927760    0.0823914075114201    0.0756809828858021 O
   0.4145048135387509    0.0696867324616219    0.4145047367006534 O
   0.4086556049309076    0.0841875727988206    0.7469219911795588 O
   0.4125213561014165    0.4072382588225006    0.0819036977669411 O
   0.4073014755386626    0.4072499217352233    0.4223273975985862 O
   0.4103481298199354    0.4140367118605118    0.7493530237078352 O
   0.4175798437540691    0.7330029854729181    0.0857250892134155 O
   0.4065965834504439    0.7583564665933689    0.4058669177615133 O
   0.4158203617762425    0.7502741701157258    0.7444350532084945 O
   0.7412432004214048    0.0807660282637017    0.0827134196369562 O
   0.7436624137898771    0.0794811409025818    0.4167184716287683 O
   0.7498475380021520    0.0850882102577234    0.7422245547711077 O
   0.7402222242211837    0.4186354127149058    0.0760037814491023 O
   0.7470596303055823    0.4093358699365700    0.4109985788126976 O
   0.7497439756845748    0.4210073321529889    0.7309348014156026 O
   0.7550487913031737    0.7462800715188664    0.0720276643425865 O
   0.7468419269403456    0.7393905015378254    0.4167220901266727 O
   0.7441376066143836    0.7540653683468540    0.7434420149635317 O
