Li26 Co27 O54
1.0
  14.1209132099999994   -4.2168848700000003   -0.0134986200000000
  14.1209132099999994    4.2168848700000003   -0.0134986200000000
  12.8685137100000002    0.0000000000000000    7.1821868699999998
Li Co O
26 27 54
direct
  -0.0018316918334556   -0.0031374826317505    0.3426048715611560 Li
   0.0017352847635918   -0.0008278447149921    0.6670603486383164 Li
   0.0004903547220339    0.3397297558536564   -0.0015987868955571 Li
   0.0020193559208139    0.3309516446685232    0.3347473934850661 Li
   0.0083418964309057    0.3355653808225561    0.6574318482117342 Li
  -0.0146114604722234    0.6783744760347252   -0.0006172603856598 Li
   0.0056036577773671    0.6575163407331305    0.3358273597869009 Li
   0.0041870533074547    0.6573972220236888    0.6726755172692305 Li
   0.3354366982985439    0.0012390016255034   -0.0025493229750894 Li
   0.3298633802012020   -0.0070877628265636    0.3445642020218697 Li
   0.3322378553223143   -0.0004162987094700    0.6690393124476026 Li
   0.3316086813398183    0.3298908100609218    0.0052123392148896 Li
   0.3365500766737205    0.3243788527686538    0.3391218396514704 Li
   0.3262692727072820    0.3376135062889395    0.6733202144883145 Li
   0.3305310133314049    0.6690268317847980   -0.0024970096513963 Li
   0.3367471264749778    0.6571562730420311    0.3338531174527295 Li
   0.3424396822168745    0.6620514623949495    0.6651555837601743 Li
   0.6750265577506135    0.9927588736720008   -0.0020438539377987 Li
   0.6707894634878931   -0.0019601129659886    0.3277853784282473 Li
   0.6608763557225772    1.0017022718507442    0.6697680474921855 Li
   0.6787018730637140    0.3352959248247557   -0.0088223777475953 Li
   0.6710726107841546    0.3353074888260650    0.3262179718976116 Li
   0.6675048953833238    0.3334227559623689    0.6606258669621129 Li
   0.6660844737141469    0.6635462240762856    0.0007316601462994 Li
   0.6780168736375025    0.6682018385603836    0.3277079394841985 Li
   0.6701271725881380    0.6616294036025049    0.6678375051622432 Li
   0.1681390173843842    0.1633974036901233    0.1667528892313248 Co
   0.1754262119103442    0.1770941507993261    0.4839178782177364 Co
   0.1664073149273129    0.1689317016682185    0.8318388422262458 Co
   0.1751037004312537    0.5001784727561300    0.1582930417895381 Co
   0.1679968461404486    0.5000618925835012    0.4984021859545582 Co
   0.1729292332261476    0.4962447696993592    0.8334654250737473 Co
   0.1657246229515187    0.8368709656604501    0.1655085297642487 Co
   0.1785986205140043    0.8242159109333100    0.4980403565657306 Co
   0.1655696030985269    0.8329569191326165    0.8380903732976591 Co
   0.4977599330852447    0.1678987815103357    0.1639215749171397 Co
   0.5137389056009429    0.1541458923086030    0.5006996789189014 Co
   0.5031467305752035    0.1595119322386639    0.8385564619414863 Co
   0.4884457350084681    0.5066359763686158    0.1740451655691782 Co
   0.4918168662839200    0.5020718783497030    0.5035994528701950 Co
   0.4966925540113246    0.5047235346770735    0.8332613547949246 Co
   0.4935726501356602    0.8386783293378031    0.1709732676324351 Co
   0.5008690217271639    0.8396327958335654    0.4910057041853192 Co
   0.5043429606522629    0.8279320482169712    0.8322919216640423 Co
   0.8261686730328701    0.1670112032570491    0.1730671025313540 Co
   0.8342443176965024    0.1671402968682767    0.4931012801486864 Co
   0.8414324325836939    0.1667727782272141    0.8275112222192073 Co
   0.8324134981162463    0.4998294135215530    0.1672958176984714 Co
   0.8325268734839060    0.5032053506998313    0.4968347031557985 Co
   0.8359187891393441    0.4998364418306007    0.8334862624231268 Co
   0.8184649070447829    0.8444283582522831    0.1659955441354174 Co
   0.8327062169194150    0.8246898726466783    0.5078546827582711 Co
   0.8365214786240581    0.8303677912364170    0.8353474872962686 Co
   0.2519709835439541    0.2573793882939366    0.2521767215785483 O
   0.2514469959034266    0.2567385880788450    0.5883702935381070 O
   0.2529891904759855    0.2610234294413994    0.9159237427053094 O
   0.2587547493957751    0.5930205820303258    0.2404749290289170 O
   0.2529327704595981    0.5843696030228581    0.5893030163219016 O
   0.2507325516756108    0.5860120704170262    0.9217379499631819 O
   0.2455267721871792    0.9261697653111461    0.2551420469853413 O
   0.2485496997711709    0.9126556426375187    0.5975127366677171 O
   0.2466911062316551    0.9240110190705346    0.9240865422598298 O
   0.5925792041648650    0.2454838248583509    0.2543662850957493 O
   0.5919516341091908    0.2560287000230290    0.5735580024713079 O
   0.5884380113048761    0.2583396531531358    0.9163560007240230 O
   0.5892410701227971    0.5806071797286799    0.2518826094742583 O
   0.6019712470608078    0.5809610617983527    0.5783542315711814 O
   0.5809458728697687    0.5954689830899687    0.9205070974701857 O
   0.5868221387861041    0.9234307481492929    0.2522102197286981 O
   0.5908883522389242    0.9132336748466826    0.5881162679570884 O
   0.5852418663868546    0.9157317647163945    0.9216645858787001 O
   0.9203062679459508    0.2643369480809459    0.2468967970802903 O
   0.9155143040041901    0.2520081993168949    0.5876280470486978 O
   0.9149780531513033    0.2604085025787908    0.9134826980479454 O
   0.9259074614302085    0.5847273583009365    0.2518534667359791 O
   0.9274353240031197    0.5779362477084042    0.5860333234154830 O
   0.9216529692042627    0.5879692146240231    0.9179567086950418 O
   0.9064481049275571    0.9298762264393331    0.2594858440089166 O
   0.9165659255208840    0.9218949532547975    0.5846700218677261 O
   0.9158831669419104    0.9175773104778920    0.9241843289692461 O
   0.0805473642123062    0.0703953874786571    0.0890786957805111 O
   0.0808837083821932    0.0777423075544804    0.4130178831389928 O
   0.0780040392374761    0.0756959217652843    0.7477389448387362 O
   0.0698863564159990    0.4163125073983754    0.0849478258863197 O
   0.0742012390448765    0.4155399215557055    0.4129620760810609 O
   0.0780157174487302    0.4120331428420682    0.7493188792455671 O
   0.0733118820319715    0.7458766734767771    0.0863234236377639 O
   0.0868821635478832    0.7412857014850970    0.4165064449864754 O
   0.0823438716703582    0.7454904564930045    0.7492927671436975 O
   0.4147038194078785    0.0785436016324811    0.0771392664275509 O
   0.4221343429843746    0.0819196194940780    0.4038144918653028 O
   0.4068681783696382    0.0869718431597813    0.7467135393407952 O
   0.4129573954882682    0.4087083893762820    0.0856203348907227 O
   0.4122065021241817    0.4086331592173710    0.4150528638920956 O
   0.4170277336985798    0.4100746614941775    0.7434132490671653 O
   0.4102146666038726    0.7487470824023025    0.0830920532227146 O
   0.4181746700513856    0.7418857376311967    0.4168322283772354 O
   0.4148933781517760    0.7474632638358218    0.7438407239794326 O
   0.7522941033725162    0.0727840942673653    0.0853106823169569 O
   0.7510315010870378    0.0787934377768120    0.4096372307414402 O
   0.7335942443623592    0.0858529109697644    0.7537232317787369 O
   0.7412113058768207    0.4105222290009023    0.0846275712681308 O
   0.7485621266244793    0.4134738727068501    0.4128697206641518 O
   0.7394925122886548    0.4104170075146982    0.7526187923294285 O
   0.7479773276180941    0.7458638013212605    0.0778173979118594 O
   0.7402393328967832    0.7575095945989748    0.4083171170785014 O
   0.7492849048760427    0.7450876370531511    0.7482865312803012 O
