Li26 Co27 O54
1.0
  14.1209132099999994   -4.2168848700000003   -0.0134986200000000
  14.1209132099999994    4.2168848700000003   -0.0134986200000000
  12.8685137100000002    0.0000000000000000    7.1821868699999998
Li Co O
26 27 54
direct
   0.0006480661509351    0.0010155571477795    0.3326601213698566 Li
   0.0054290785611730   -0.0072849816525359    0.6678958099646809 Li
  -0.0071362304768562    0.3459371529583902   -0.0034892220823459 Li
  -0.0050881345555116    0.3304171118318000    0.3433508905361972 Li
  -0.0109653663263932    0.3391269186300787    0.6753536613428658 Li
   0.0042947155109975    0.6696603221840944   -0.0010105060076885 Li
   0.0026667239930107    0.6662912226133997    0.3330939314941152 Li
  -0.0023638603910150    0.6646495859259629    0.6674201247700026 Li
   0.3362810317663805    0.0030912586418622   -0.0073840324563442 Li
   0.3471248256969520   -0.0069343936189977    0.3259528536284748 Li
   0.3285604577259807   -0.0022148236888246    0.6711110883126097 Li
   0.3364709643649811    0.3430333565579652   -0.0131780326784044 Li
   0.3364391574644732    0.3256916910913095    0.3385549470512306 Li
   0.3315512287562588    0.3331338054972127    0.6667046598455335 Li
   0.3349653601528847    0.6674148643216600   -0.0032158987097108 Li
   0.3426660949065688    0.6683748822698288    0.3245317249470339 Li
   0.3295715591411343    0.6672173937915532    0.6671335809507278 Li
   0.6709215495404538    0.9866415321843821    0.0075929862447289 Li
   0.6699646606715441   -0.0069221173941796    0.3363996791193702 Li
   0.6647878071108879    0.9932809502065482    0.6701073644790502 Li
   0.6638246332212625    0.3403752981934277   -0.0007424778572522 Li
   0.6636103395661802    0.3442953593959194    0.3235214287991446 Li
   0.6553894195479959    0.3354885456711417    0.6766516546636780 Li
   0.6617497281209261    0.6664707568291567    0.0052035991521193 Li
   0.6688598887131483    0.6689687634820767    0.3329010978289347 Li
   0.6667364723118956    0.6691677119869082    0.6627910484948409 Li
   0.1639300149546113    0.1717407390471199    0.1624815796861743 Co
   0.1628738255115442    0.1639750161681912    0.5048686435728091 Co
   0.1680214477906845    0.1637897989544750    0.8331803155466313 Co
   0.1686092098429638    0.4961505247733445    0.1691576336683344 Co
   0.1720723994347482    0.5066369648508324    0.4944190237360855 Co
   0.1678326759992842    0.5014595034035958    0.8313876860207551 Co
   0.1692181579304852    0.8354169319925664    0.1606431083046240 Co
   0.1550865413765444    0.8416148518896396    0.5041190665392239 Co
   0.1677680621522131    0.8264875322691423    0.8390621542938327 Co
   0.4939946220715538    0.1749479073656619    0.1585822147161050 Co
   0.5103072468648044    0.1543501647554008    0.5027414863818936 Co
   0.4905999523527159    0.1803289243645955    0.8245165734653442 Co
   0.5030207719481008    0.5015465315261599    0.1582072906221481 Co
   0.4978329958979516    0.5090788253243981    0.4953924593739523 Co
   0.5004424441406403    0.5051292327187853    0.8284739513956934 Co
   0.5012256405197172    0.8336481988717449    0.1661198492473941 Co
   0.5005142144667687    0.8284328205768530    0.5068571989943393 Co
   0.4977785337852479    0.8321114296545334    0.8363845954330712 Co
   0.8375176028785005    0.1657559325622673    0.1652531643396360 Co
   0.8210601430774295    0.1797753862403282    0.4942517885448244 Co
   0.8336368043128035    0.1675623775837613    0.8373689063040288 Co
   0.8328121336007741    0.4991252592090377    0.1682941308259619 Co
   0.8343546450697853    0.4958465816714953    0.5025320988875450 Co
   0.8329680097820136    0.4967610053556911    0.8371003495090971 Co
   0.8301666187989314    0.8313563631196577    0.1717297487274795 Co
   0.8418504077797943    0.8228923682422838    0.4992955957559930 Co
   0.8358705994283759    0.8326046230333386    0.8291202057157049 Co
   0.2473216436200855    0.2591430149744918    0.2563247156657444 O
   0.2475092980934420    0.2575032013686720    0.5892110830224447 O
   0.2550357856330367    0.2421285805044763    0.9311462259115780 O
   0.2486879752806613    0.5881723687637773    0.2557286642540753 O
   0.2535304283182342    0.5845450972250934    0.5852591983070892 O
   0.2507567668620471    0.5798008630290246    0.9275742193981404 O
   0.2511472472179546    0.9212659802015365    0.2552031127134164 O
   0.2496628814543985    0.9220677779007588    0.5867348409535186 O
   0.2547229344109927    0.9187692457165786    0.9194923375646332 O
   0.5872376043251065    0.2465016459407204    0.2590106667587411 O
   0.5831403263937769    0.2614558921324107    0.5833607679865109 O
   0.5837380524894604    0.2569521813218746    0.9191500950487154 O
   0.5914998788098627    0.5742787319239661    0.2618844212417925 O
   0.5822706181524130    0.5856168062946078    0.5952700310096987 O
   0.5901732330753885    0.5847003412661732    0.9163075554358100 O
   0.5854635306688890    0.9199836413795551    0.2566658703061953 O
   0.5843371542007378    0.9245909131815142    0.5883275043886456 O
   0.5791247221988984    0.9290062976573639    0.9168842935429263 O
   0.9231357813418377    0.2597653736948370    0.2454212081540709 O
   0.9134044647935577    0.2653586059165664    0.5762162685253863 O
   0.9164283990355295    0.2502990567375730    0.9271249790210714 O
   0.9179725415938856    0.5762927010985414    0.2678686854079467 O
   0.9235990147459106    0.5796676332043360    0.5870813598163467 O
   0.9208670615014942    0.5888210042453474    0.9158258242083452 O
   0.9228885982441866    0.9167988027694094    0.2540064648484738 O
   0.9231467150474889    0.9138700505356055    0.5851924073710825 O
   0.9190950320940158    0.9203902632044715    0.9190576047522696 O
   0.0701562326572168    0.0799377352642699    0.0944822654646496 O
   0.0831487315427305    0.0766385021879922    0.4161704402557523 O
   0.0852329195758383    0.0717564204415869    0.7471298974291252 O
   0.0757195469669102    0.4152185256290364    0.0849640119391781 O
   0.0824357297347924    0.4157329114753706    0.4114512222528407 O
   0.0790351662329474    0.4129717524043416    0.7416229526295326 O
   0.0753696794832974    0.7553519857662776    0.0780938289446137 O
   0.0837264028523686    0.7435470600327281    0.4140270691314793 O
   0.0830561601089672    0.7460940258689586    0.7446937999081528 O
   0.4162429992397763    0.0683369281114130    0.0873177581820318 O
   0.4097932420452605    0.0766272841771561    0.4173938553519334 O
   0.4107647245719850    0.0737313253988582    0.7522625510959180 O
   0.4193495807770318    0.4149679827912721    0.0707902590374472 O
   0.4115026419981453    0.4189615182526013    0.4125959034236193 O
   0.4085503154183154    0.4134750604134519    0.7464837220544205 O
   0.4140017398037583    0.7410798039709448    0.0801611519110261 O
   0.4152691466628017    0.7426114345309922    0.4159149101098368 O
   0.4191922475589748    0.7384468491690527    0.7461892160713592 O
   0.7389196201384374    0.0789818681680814    0.0885812968747171 O
   0.7504598161745871    0.0811679754110142    0.4081598708944875 O
   0.7480591503463816    0.0753843350127956    0.7496155153877444 O
   0.7618413022761270    0.4034977774405940    0.0773941950260168 O
   0.7483031754956109    0.4079801335293410    0.4189998447570195 O
   0.7452645470668735    0.4136850273437636    0.7479283865632638 O
   0.7545927626203310    0.7482875675343971    0.0711356531243198 O
   0.7473557634339023    0.7419709525251383    0.4161840040070720 O
   0.7484500958985203    0.7424083866839710    0.7472317163021633 O
