Li27 Co27 O54
1.0
  14.1209132099999994   -4.2168848700000003   -0.0134986200000000
  14.1209132099999994    4.2168848700000003   -0.0134986200000000
  12.8685137100000002    0.0000000000000000    7.1821868699999998
Li Co O
27 27 54
direct
   0.0007816772028312   -0.0011532380436545   -0.0000696886904086 Li
  -0.0067048884461826    0.0004922518449070    0.3349895453025135 Li
   0.0031131381794254    0.0048059264264574    0.6593723565978877 Li
  -0.0023574713234108    0.3351958011290013   -0.0021959044290763 Li
  -0.0111030890256621    0.3375665599790408    0.3372603729206097 Li
  -0.0002773784027236    0.3343139814373345    0.6627341440920410 Li
  -0.0042987436796738    0.6662957166475876    0.0061290106849516 Li
  -0.0003704305418825    0.6714694010660716    0.3297859263669330 Li
  -0.0028107423961322    0.6614421475825873    0.6740282118607015 Li
   0.3383397005428959   -0.0015969665288818   -0.0037637969383276 Li
   0.3219194825242943    0.0085877011553729    0.3370575159068611 Li
   0.3295976950543478   -0.0070787030462274    0.6774754955726542 Li
   0.3301407851102262    0.3382789638091739   -0.0040758297166967 Li
   0.3302473772163496    0.3317369264918718    0.3398666627817339 Li
   0.3295551897144862    0.3288517851682665    0.6708489561690575 Li
   0.3285076363480476    0.6741163569009460   -0.0038119767679590 Li
   0.3313214313981112    0.6690846855978292    0.3353560256412733 Li
   0.3414881266462158    0.6688777199985463    0.6583072192102878 Li
   0.6736442105855900    0.9961456142000661   -0.0002317049701851 Li
   0.6600145034280996    0.0206916297931571    0.3188368148664381 Li
   0.6685521112639266    1.0072900781976049    0.6570008089893232 Li
   0.6660913840272256    0.3354933236617266   -0.0047043094938315 Li
   0.6686145177171130    0.3374063446003296    0.3233826571766298 Li
   0.6611091024689384    0.3354945934936979    0.6734069340454508 Li
   0.6627089851415388    0.6688017578870673    0.0066304735327755 Li
   0.6640055771890263    0.6678915000071690    0.3330225360106452 Li
   0.6636236904269541    0.6629615485771476    0.6715908178263206 Li
   0.1696318796751138    0.1595339501239161    0.1710568185642978 Co
   0.1652917042659962    0.1685130388684715    0.4977289065086501 Co
   0.1687981766583640    0.1666203950868667    0.8287784779740621 Co
   0.1669886101502219    0.5017418518458423    0.1651736850946460 Co
   0.1645503394039607    0.5065932899032503    0.4944237108698707 Co
   0.1678066507967668    0.4960699375050837    0.8385818676728345 Co
   0.1701565313845993    0.8339096677592618    0.1647251551187913 Co
   0.1559135058658642    0.8372094256211555    0.5054552069734154 Co
   0.1622061655284280    0.8304565472946462    0.8384469146119146 Co
   0.4976182455086761    0.1630922660981469    0.1723193835913890 Co
   0.5011508049906763    0.1613659913297455    0.5024922833344904 Co
   0.5086615969941829    0.1608338452165415    0.8302681884663461 Co
   0.4974519662140798    0.5002943954761194    0.1648839210651078 Co
   0.5019754409919208    0.5019761568621923    0.4993592322043777 Co
   0.5014723907146603    0.5067162826540867    0.8268300764894307 Co
   0.4996451202268155    0.8373427010813854    0.1628231993174816 Co
   0.5014537146597869    0.8312122237289657    0.5052311144373017 Co
   0.5005682261129183    0.8352390520372032    0.8342340949663546 Co
   0.8385185823381678    0.1586022678910771    0.1684872114153921 Co
   0.8420429564418286    0.1646830068826069    0.4957104975393709 Co
   0.8343748235320643    0.1640233131338963    0.8314855857944340 Co
   0.8305361836070915    0.5032594456444595    0.1717285880551848 Co
   0.8448816562505627    0.4913671462272682    0.4975309947687028 Co
   0.8309795695128810    0.4954876300436951    0.8434699671807151 Co
   0.8279035027925274    0.8367752327151421    0.1721144836134594 Co
   0.8198161294336883    0.8318157985311512    0.5130455204190287 Co
   0.8372724298054587    0.8301033118674611    0.8360800930163679 Co
   0.2529162592733928    0.2503121472994420    0.2574898089733577 O
   0.2489242808861959    0.2479282031336734    0.5975045577176281 O
   0.2508486047621509    0.2442619526288173    0.9276697834661277 O
   0.2480251986072159    0.5929424252409414    0.2556234030161858 O
   0.2554168353926189    0.5919480069021310    0.5768682975542722 O
   0.2595200424775001    0.5790043523166932    0.9250775163935347 O
   0.2543796991196391    0.9283532064394885    0.2485791766989932 O
   0.2502417698931282    0.9226809433007346    0.5889985557079722 O
   0.2428152729388495    0.9244091794539471    0.9258381395341490 O
   0.5889411928400112    0.2516692798551184    0.2564594504311573 O
   0.5751830640809931    0.2607757922626723    0.5877515411154507 O
   0.5835569720652849    0.2580401665776919    0.9224793335347704 O
   0.5926173195619637    0.5827381380376233    0.2518176404151332 O
   0.5811539809064714    0.5906346872257779    0.5855911064450293 O
   0.5811120402907877    0.5895819618642826    0.9230180663894997 O
   0.5844071844606593    0.9175344481888104    0.2589640259477466 O
   0.5872385339833426    0.9280514712163519    0.5813000569774873 O
   0.5842854656179401    0.9230304846102420    0.9212677929860941 O
   0.9140024864221443    0.2592712261367970    0.2507182330392135 O
   0.9095583817452511    0.2519691427617429    0.5964083914979863 O
   0.9261780886342638    0.2559121000889751    0.9150704093618452 O
   0.9245083054209462    0.5821048830621987    0.2522025428838051 O
   0.9218943814742571    0.5936611986245441    0.5794512378645532 O
   0.9193088126806214    0.5884811525565526    0.9173683987921907 O
   0.9204873798327133    0.9217784383844563    0.2479909591710503 O
   0.9249779801753089    0.9166977756612078    0.5853220780184200 O
   0.9228805606292827    0.9200701723661979    0.9200596175299490 O
   0.0819988906520887    0.0843606203039428    0.0752720374504301 O
   0.0776639041806017    0.0817948580953069    0.4133434584991195 O
   0.0711947704562096    0.0849806226151172    0.7525043518024913 O
   0.0865315023838360    0.4129984981809422    0.0708733932721899 O
   0.0747000879659773    0.4085278672665743    0.4191423148004922 O
   0.0678589073855386    0.4122242435906716    0.7555783959501355 O
   0.0789355554495016    0.7464897028740882    0.0794759952900088 O
   0.0776768874846580    0.7526104728008249    0.4112137714822654 O
   0.0824303463417833    0.7527372639186899    0.7401494528908212 O
   0.4181124871582934    0.0725332155150043    0.0850925677775148 O
   0.4130765520514055    0.0792430291242038    0.4167107111714798 O
   0.4077135559072780    0.0888275568822176    0.7456699111371630 O
   0.4039365456696055    0.4123098147940979    0.0908073040902058 O
   0.4104070452108559    0.4159200930660726    0.4153844403625142 O
   0.4039262628591502    0.4185221659017992    0.7484566720160839 O
   0.4181959355494431    0.7478639984937379    0.0767752200086596 O
   0.4125722332177315    0.7418588178132226    0.4196923468129810 O
   0.4114563889783333    0.7451529238737664    0.7429445068194915 O
   0.7427022357120983    0.0843400353089298    0.0810773195114429 O
   0.7466089037393051    0.0800739672577866    0.4096383066138984 O
   0.7418193415111280    0.0872052740755281    0.7450674683073591 O
   0.7459878285498233    0.4109158567641432    0.0835776970579698 O
   0.7396631694517013    0.4152796626701922    0.4204450373256479 O
   0.7522917251962413    0.4130158225344321    0.7428149120641141 O
   0.7460181724989998    0.7425722649409084    0.0858598269492058 O
   0.7504619785959736    0.7402123719976278    0.4144340487255778 O
   0.7426193699882117    0.7496745976146179    0.7472104201474848 O
