Li27 Co27 O54
1.0
  14.1209132099999994   -4.2168848700000003   -0.0134986200000000
  14.1209132099999994    4.2168848700000003   -0.0134986200000000
  12.8685137100000002    0.0000000000000000    7.1821868699999998
Li Co O
27 27 54
direct
  -0.0033214933306130    0.0040409776716186    0.0024522215127766 Li
  -0.0042499707292983    0.0000736274991751    0.3380908369191740 Li
  -0.0054894653621521    0.0022450571432257    0.6723605458470021 Li
   0.0019983823864629    0.3309004773693746    0.0014254013661014 Li
   0.0029050634838700    0.3290991480835331    0.3351245022989646 Li
  -0.0001734472414314    0.3334119791594424    0.6647181982006040 Li
  -0.0078741012833029    0.6755349039563442    0.0001596259583760 Li
  -0.0066089594227627    0.6656364606461220    0.3387313275012533 Li
   0.0123828341140522    0.6628677396130718    0.6585952770418559 Li
   0.3335279511949091   -0.0082773779846489    0.0031533588407296 Li
   0.3312894557418826   -0.0010178110533864    0.3370824425950926 Li
   0.3406259699669696   -0.0057384620011926    0.6666091711806732 Li
   0.3364526019147194    0.3269568759946159    0.0017286383824247 Li
   0.3347303034575246    0.3237603959942754    0.3392161939707928 Li
   0.3379796691286671    0.3267562157217625    0.6689610577765511 Li
   0.3360928007271192    0.6640981478228667    0.0020172436118434 Li
   0.3339105182833124    0.6700659245617187    0.3302572871614510 Li
   0.3369594579574022    0.6585975289329649    0.6746130722766177 Li
   0.6528145296435400    1.0097105891935090    0.0005746058641505 Li
   0.6672057075127757    0.0002207210821815    0.3330310126193676 Li
   0.6577998485094254    1.0028507268235796    0.6706092287889595 Li
   0.6756125516083455    0.3270649060017751   -0.0061855557936369 Li
   0.6686057126585803    0.3361131965478871    0.3255250217912412 Li
   0.6648452574130288    0.3365353104280163    0.6633548244194420 Li
   0.6549575744629756    0.6744094258058853   -0.0009695098164344 Li
   0.6603289839426483    0.6641867369134768    0.3377622448872438 Li
   0.6703826539753766    0.6662051413077039    0.6678076175501715 Li
   0.1646264066786282    0.1654394669203468    0.1706619443259183 Co
   0.1584767626515551    0.1656208353188521    0.5073752111210375 Co
   0.1634497748032154    0.1658528294354973    0.8337697398780519 Co
   0.1633176294880554    0.4988271664413417    0.1694969809984199 Co
   0.1697257359352992    0.4897552127879928    0.5109846711031891 Co
   0.1713441657691794    0.5030269788444119    0.8269769470201780 Co
   0.1656106771575261    0.8374288940687453    0.1646570342659587 Co
   0.1711327415046678    0.8320763899149711    0.4976627494136049 Co
   0.1746882418583310    0.8241935499858389    0.8344407893655894 Co
   0.4981704138747247    0.1673110343800242    0.1671133470190373 Co
   0.5064661516642107    0.1641113876523539    0.4956341462377707 Co
   0.4945561160657732    0.1727661583276610    0.8322869822224269 Co
   0.4957588870893276    0.5052879780408344    0.1619541830880170 Co
   0.4982804924661186    0.5016332121365901    0.4980597417732608 Co
   0.4938948519748351    0.5029471266502341    0.8314638303550503 Co
   0.5008887959357257    0.8323540346168425    0.1665715852720802 Co
   0.5005186220092127    0.8348341887763459    0.4932139118310144 Co
   0.5034546485680704    0.8286374454291130    0.8342549984950877 Co
   0.8365825797144807    0.1659619850829903    0.1585805406207305 Co
   0.8458001505859249    0.1608955840112163    0.4897365723196761 Co
   0.8273410938636278    0.1632039027231479    0.8422343227133045 Co
   0.8291071480394725    0.4997106836022870    0.1701927541507732 Co
   0.8260486649930000    0.5026033709816760    0.5034734288430084 Co
   0.8294247298193461    0.5025874649174061    0.8340223527349405 Co
   0.8351459221249361    0.8360192301774977    0.1628050015062903 Co
   0.8437418977173629    0.8280382244562693    0.4976021251628152 Co
   0.8259957790050090    0.8412303923815734    0.8336608654796127 Co
   0.2545941704776276    0.2476022912205752    0.2596968272669763 O
   0.2513106285052663    0.2520666624267620    0.5926232107335058 O
   0.2545584675710499    0.2535078729053356    0.9198418848656453 O
   0.2610900700408688    0.5865037864187899    0.2472152702353405 O
   0.2489423344880503    0.5921190696981764    0.5874312825401127 O
   0.2523296182289302    0.5949288305198436    0.9163664588983140 O
   0.2494418968667154    0.9262553448204452    0.2514767289237813 O
   0.2554853259816522    0.9253910269996509    0.5807427314588953 O
   0.2579703154819839    0.9220327523417529    0.9115797468330566 O
   0.5894033332174602    0.2512494241154520    0.2524614354820833 O
   0.5897881359423576    0.2465381545954633    0.5906213469510259 O
   0.5798346283861713    0.2539306787060188    0.9270630047856880 O
   0.5833448741648113    0.5883592444677872    0.2554864257979402 O
   0.5844899413923947    0.5879870435512704    0.5880462717431270 O
   0.5922137855026399    0.5892325854387019    0.9123096200932355 O
   0.5861061771499816    0.9229441482452243    0.2493164924381413 O
   0.5821712203421849    0.9160303911188579    0.6008996544158227 O
   0.5854004293353169    0.9203014177645833    0.9213469536378283 O
   0.9260408426408073    0.2513528961789487    0.2522883669647091 O
   0.9234074138691499    0.2516593136788556    0.5882259269641709 O
   0.9152974917352144    0.2520537087788203    0.9222012668457563 O
   0.9160295855250096    0.5859450711292110    0.2551532948342269 O
   0.9153473728199242    0.5927137230378523    0.5881990154355091 O
   0.9174557664041092    0.5877280055234755    0.9276816942523151 O
   0.9246881565388428    0.9180592581530124    0.2534186271918266 O
   0.9153187623945356    0.9147101721919106    0.5932577264411087 O
   0.9160849176129731    0.9159869182225089    0.9253202181171588 O
   0.0887889994410365    0.0706257354526829    0.0796181339409969 O
   0.0846381335928026    0.0771195920582988    0.4122202275773112 O
   0.0890427048956542    0.0753706021906047    0.7410483526813260 O
   0.0899902403524276    0.4096775726341948    0.0759108059342375 O
   0.0745480756725942    0.4162024375856568    0.4156233751451251 O
   0.0837959705724298    0.4150223016508121    0.7399969277269268 O
   0.0730096797546789    0.7416337543974501    0.0884380699833683 O
   0.0847519362387230    0.7430063599733808    0.4131902972259973 O
   0.0834376186771131    0.7502594394532839    0.7440719402725198 O
   0.4091551201633306    0.0886336005776498    0.0786560303298542 O
   0.4172481453573114    0.0706232174749441    0.4177035255289830 O
   0.4119466469205638    0.0864305335576913    0.7401571078703879 O
   0.4129551547017182    0.4163305869376974    0.0742292199416883 O
   0.4167715251336187    0.4148799818479554    0.4125519397769996 O
   0.4230258547312881    0.4127323822978458    0.7350369958040587 O
   0.4090121994171266    0.7438102355337863    0.0871743019426190 O
   0.4072888406089981    0.7552684692578245    0.4138751032813492 O
   0.4110770734728533    0.7452167979906925    0.7505293088255252 O
   0.7466122259850215    0.0794992519219887    0.0777111905337605 O
   0.7517792906575826    0.0769816711491106    0.4160844719020239 O
   0.7506811756995453    0.0725000284956607    0.7478837464460146 O
   0.7483413010860699    0.4166440464352024    0.0770761588010768 O
   0.7521007473194791    0.4130218604202335    0.4051793283111468 O
   0.7472642100453573    0.4074310239588700    0.7521851518539550 O
   0.7546412980952684    0.7519018920071707    0.0643479881763672 O
   0.7498727862838067    0.7422134085025035    0.4108877394435116 O
   0.7425138909578426    0.7491823374376532    0.7478215344754404 O
