Li27 Co27 O54
1.0
  14.1209132099999994   -4.2168848700000003   -0.0134986200000000
  14.1209132099999994    4.2168848700000003   -0.0134986200000000
  12.8685137100000002    0.0000000000000000    7.1821868699999998
Li Co O
27 27 54
direct
  -0.0036588701229131    0.0046654362478784    0.0004540687950668 Li
  -0.0027560861275336    0.0056070463038534    0.3329422147715775 Li
  -0.0106345813401618    0.0052374881573944    0.6721923237864175 Li
  -0.0011086144893583    0.3393098541512513   -0.0036285834491851 Li
  -0.0024450307724040    0.3410465210592775    0.3301926883047734 Li
  -0.0016725101087653    0.3347144614940995    0.6654573010630240 Li
   0.0033165717054910    0.6714964783845859   -0.0090209346333343 Li
  -0.0044611821451988    0.6723164838289022    0.3270676403678999 Li
  -0.0017403635256801    0.6719919853460461    0.6637717246013868 Li
   0.3422020709140043   -0.0023528917590280   -0.0062685881983709 Li
   0.3286488318388281    0.0001805690657728    0.3401292374648385 Li
   0.3301824799929078    0.0012864836670282    0.6678556982855601 Li
   0.3390162073832874    0.3318775698461652   -0.0039472409039583 Li
   0.3372121505237342    0.3309080621967789    0.3349913414086568 Li
   0.3323792289636997    0.3284738362855251    0.6752073493271538 Li
   0.3363527945822798    0.6653430221859022   -0.0048612907907388 Li
   0.3326099995338194    0.6640799189730372    0.3378228228678764 Li
   0.3336110887646246    0.6708607634804553    0.6646692802296412 Li
   0.6522677838457444    1.0013983658339887    0.0091671977141116 Li
   0.6631774748494008    0.0082270322612957    0.3243201685457375 Li
   0.6593085380771480    1.0072991166036893    0.6686381082174612 Li
   0.6504985423844620    0.3381430770896506    0.0074940931748641 Li
   0.6722421669376170    0.3333415004703639    0.3315374910766692 Li
   0.6781881550314716    0.3216135503282499    0.6686940344766295 Li
   0.6585890886948046    0.6688565023337789    0.0046935674090152 Li
   0.6632393778404897    0.6695261344202356    0.3273170691845280 Li
   0.6681216802052736    0.6652198517386601    0.6643921056412254 Li
   0.1653475815564173    0.1579752254711522    0.1738609320202864 Co
   0.1624964147017031    0.1597037872498495    0.5079664968405715 Co
   0.1752344833163388    0.1545938453446390    0.8376993669989938 Co
   0.1652424920160112    0.4961552587001112    0.1740568467670925 Co
   0.1742474898830078    0.4883196422581885    0.5002396546171798 Co
   0.1671173541636087    0.5060316826195085    0.8268236531746957 Co
   0.1641754321451227    0.8316396769074693    0.1657407578000269 Co
   0.1694921086168464    0.8330988208764533    0.4963487732091860 Co
   0.1667910659773972    0.8305382087767887    0.8350473137690805 Co
   0.4982017284090868    0.1626039157392543    0.1725530580775888 Co
   0.4943288090081611    0.1665669364295723    0.5067730983010466 Co
   0.4937743193088242    0.1699355335316840    0.8366414163136773 Co
   0.5036367211940669    0.5014959363479118    0.1626768756965841 Co
   0.5038116773060134    0.5052307223567688    0.4926977286205049 Co
   0.4998859242822295    0.4999338191222734    0.8358697302923039 Co
   0.4974656595775151    0.8320816058093667    0.1669671725778406 Co
   0.4962174829040564    0.8317973202395936    0.5074384524345955 Co
   0.5038341730836180    0.8316169381839147    0.8323235166134781 Co
   0.8441445935436028    0.1691394514957894    0.1573590478933254 Co
   0.8286409266134420    0.1678358366126831    0.4958924889741474 Co
   0.8360275243968545    0.1682665945502115    0.8279434652439464 Co
   0.8362727605191598    0.4989845351704228    0.1614079598699675 Co
   0.8308285246592477    0.5022823706434009    0.4969337810404937 Co
   0.8408224921046881    0.4908078938887881    0.8307443334390771 Co
   0.8331724712536548    0.8340158092329207    0.1614181349447132 Co
   0.8360001731602495    0.8395525419066463    0.4983030424325910 Co
   0.8214252055625964    0.8365157722964012    0.8395719945647846 Co
   0.2521596953814476    0.2500311802676388    0.2539849475865522 O
   0.2512965831242703    0.2572842995280967    0.5824047730303807 O
   0.2588137289912048    0.2491891596293649    0.9210815025187581 O
   0.2503678259213043    0.5901150503344246    0.2509381309060864 O
   0.2512186988527380    0.5866637896356723    0.5896578949161397 O
   0.2426190375879449    0.5883561879888869    0.9297754282230729 O
   0.2523184475312301    0.9269597988178930    0.2469899501385862 O
   0.2406462001640986    0.9271485307661798    0.5911221963213290 O
   0.2612151247702796    0.9189591670377640    0.9155900560493903 O
   0.5918172740215182    0.2533721620504527    0.2508289567103407 O
   0.5806040354791124    0.2505772157755061    0.5955351769781244 O
   0.5858568862242048    0.2553797626980626    0.9209165511525604 O
   0.5918446115671210    0.5791740784236692    0.2492285069779877 O
   0.5924938482862310    0.5879302127189847    0.5757777067423240 O
   0.5999686122375782    0.5795842054390874    0.9116292579222706 O
   0.5875104253435192    0.9217541763499105    0.2498716353718692 O
   0.5891531150970029    0.9156747456804386    0.5849629216935874 O
   0.5819547400965497    0.9210049216146361    0.9224242823511049 O
   0.9285346842656481    0.2496591698711382    0.2540349259466068 O
   0.9247062519701783    0.2527510921330759    0.5768714049731487 O
   0.9228940052869745    0.2585186167871137    0.9135078974459814 O
   0.9157400492669703    0.5930049142171641    0.2551705103017264 O
   0.9254079654664386    0.5844050079764518    0.5867468980407330 O
   0.9151524376384390    0.5881672047570863    0.9259567873396577 O
   0.9153000909893380    0.9225175187380695    0.2562100929105144 O
   0.9220956287684331    0.9259472662322817    0.5782991140049889 O
   0.9275700812256067    0.9076672068180720    0.9292571834506077 O
   0.0741278178911361    0.0783989048517110    0.0898111400560674 O
   0.0818829328762047    0.0773295432205832    0.4171889118166831 O
   0.0840817242578615    0.0836356902950484    0.7411607803256225 O
   0.0696245982458568    0.4159905939331000    0.0880008576673185 O
   0.0783272932750808    0.4138879089310075    0.4115885561612097 O
   0.0788606102810193    0.4157782038309001    0.7432191677258134 O
   0.0729990620282965    0.7409140236938520    0.0947091695891443 O
   0.0744051766957140    0.7450132737790783    0.4182433940924204 O
   0.0821012317745333    0.7513324377272488    0.7410259225380912 O
   0.4179135106530681    0.0795622626747036    0.0739268368482415 O
   0.4061362006052917    0.0797624831676774    0.4192193764871978 O
   0.4174163886826685    0.0789689280584133    0.7442422787247845 O
   0.4161663939543012    0.4079592765559674    0.0818830252732373 O
   0.4162432701177405    0.4191366330689378    0.4110231611734612 O
   0.4172261758161572    0.4156232084729140    0.7413448305269386 O
   0.4135509479258118    0.7417764926895783    0.0808471334671251 O
   0.4111397446622153    0.7566040270435072    0.4089615953545014 O
   0.4078618785441439    0.7495073147166491    0.7500115307713737 O
   0.7486092778046229    0.0781509225430951    0.0788731487543681 O
   0.7401647285826374    0.0806375508328925    0.4180234158326516 O
   0.7461085210013809    0.0872772683820153    0.7385532366177930 O
   0.7386362319491855    0.4239609663851661    0.0788021601083261 O
   0.7438767562385404    0.4147174154708413    0.4110088986860754 O
   0.7564585199373235    0.4146546070226996    0.7333975577308551 O
   0.7404684236589207    0.7406717550373071    0.0947071459269621 O
   0.7461112521625127    0.7470647170520816    0.4140447237700052 O
   0.7431045014566917    0.7472575005880158    0.7497832040429634 O
