Li22 Co27 O54
1.0
  14.1209132099999994   -4.2168848700000003   -0.0134986200000000
  14.1209132099999994    4.2168848700000003   -0.0134986200000000
  12.8685137100000002    0.0000000000000000    7.1821868699999998
Li Co O
22 27 54
direct
   0.0068313759751322   -0.0012052900930659   -0.0031734552406873 Li
   0.0032166182624985    0.0032738950905356    0.3280495960298047 Li
  -0.0003668550462661    0.3316948271946643    0.0007117229099599 Li
  -0.0011603975646428    0.3312716115084122    0.3360920200981052 Li
   0.0050560080312178    0.3375485410044015    0.6606838817011004 Li
  -0.0026864718568290    0.6672196564275361    0.3327198223393273 Li
   0.0015197465177175    0.6708477323049439    0.6607175050841502 Li
   0.3329843945174911    0.0021332107217932   -0.0040321162321646 Li
   0.3338736237339043   -0.0009203290874926    0.3320274117032287 Li
   0.3366060171372074   -0.0102818510814720    0.6761337594180089 Li
   0.3370058702305241    0.3281734805886039    0.0020205094244658 Li
   0.3408853104622032    0.3260457025007649    0.3287748770879478 Li
   0.3399084264125732    0.3332818021894652    0.6624354008403510 Li
   0.3268259387575890    0.6764388764987989    0.3343416603958993 Li
   0.3358053324538676    0.6667959944545387    0.6627774032325165 Li
   0.6628634539027753    0.9994611387985366    0.0030772807633996 Li
   0.6673393458304653   -0.0027981271814238    0.3336448164705014 Li
   0.6604011851606654    1.0070948758406923    0.6641564392541588 Li
   0.6625414521598938    0.3308499737537854    0.6696709280849995 Li
   0.6680140740871876    0.6631925464441660    0.0030079352190689 Li
   0.6780185099427631    0.6584046897269266    0.3279088378478882 Li
   0.6681276505026154    0.6695695052582356    0.6609900347443067 Li
   0.1715601866053966    0.1677836498949901    0.1609505440027784 Co
   0.1709011102950784    0.1622729476902619    0.5013962155810696 Co
   0.1732159850091629    0.1582840930306086    0.8338054866441459 Co
   0.1551264069286445    0.5054017315872008    0.1702625229054206 Co
   0.1668534145923427    0.4994966641075735    0.4957576851316629 Co
   0.1775813961931322    0.4921720823773406    0.8264804569938279 Co
   0.1664171385510645    0.8364457737268597    0.1671897878465910 Co
   0.1690982918180999    0.8310529714649957    0.4985272477440414 Co
   0.1625915725609677    0.8394976696013821    0.8295251833671275 Co
   0.5101627868530115    0.1708469352129797    0.1521309027333515 Co
   0.4948444868463465    0.1619286910288429    0.5127149201526010 Co
   0.5062693551392026    0.1710677315279628    0.8208654552545271 Co
   0.5021872590528833    0.5048750946147434    0.1608551153349255 Co
   0.5030810603877680    0.4990146664241893    0.4986251395172811 Co
   0.5014578539270407    0.4981481646056679    0.8314854600442347 Co
   0.4997503371708697    0.8322997540823472    0.1682461887995484 Co
   0.5040112618799819    0.8339371368416726    0.4997287549204172 Co
   0.5068205888577242    0.8262445844122175    0.8285283609273161 Co
   0.8324802334268689    0.1637508601751414    0.1684209967399390 Co
   0.8388278683610759    0.1613090608165853    0.4978875975717071 Co
   0.8349230063463565    0.1676301477197768    0.8367315681053401 Co
   0.8322042193018708    0.5061228033199836    0.1615127760879176 Co
   0.8241330078186566    0.5038660258961929    0.5089689343690346 Co
   0.8254085198383547    0.5106750883776079    0.8309865036888300 Co
   0.8386314453508901    0.8290802091023695    0.1704955958711006 Co
   0.8341947094954886    0.8329109608991178    0.4954875179942361 Co
   0.8313291405929754    0.8319115387703028    0.8386094567477443 Co
   0.2634247286451126    0.2546191529876052    0.2410612845317206 O
   0.2540864966618777    0.2549839944270146    0.5839685927590104 O
   0.2526186526225077    0.2568303615555889    0.9180366845284204 O
   0.2519885648907914    0.5790186154749450    0.2587402200796419 O
   0.2564548772129661    0.5860429217936765    0.5829561488388030 O
   0.2456138689839055    0.5924105366665060    0.9175512493564458 O
   0.2517203108070222    0.9176999487588779    0.2550954667881865 O
   0.2643139693995138    0.9139158667937327    0.5805033946244854 O
   0.2608110045719684    0.9179028420928306    0.9130997380372690 O
   0.5837645733358430    0.2538705647134424    0.2561267282174769 O
   0.5834440557010487    0.2568339747368940    0.5897251488306067 O
   0.5894276688861548    0.2504431324979463    0.9255765246220246 O
   0.5849865137501140    0.5883185752093057    0.2524963396961240 O
   0.5854835664344511    0.5889624500801042    0.5943757731232735 O
   0.5816838078650517    0.5918937483354434    0.9190393209298641 O
   0.5864625757015964    0.9213261582152845    0.2499437780684426 O
   0.5877828371805540    0.9224643497422704    0.5845550590753562 O
   0.5896428954324092    0.9260305885740653    0.9124596207768410 O
   0.9145445007754066    0.2583768147086208    0.2527262948231219 O
   0.9174063265069257    0.2493655192393610    0.5914406843478280 O
   0.9104654033344173    0.2602535181787610    0.9205252844405430 O
   0.9108587123492315    0.5912626469486102    0.2572927343319233 O
   0.9119870849768450    0.5936010496017425    0.5877833485009423 O
   0.9193733237270140    0.5825420106729217    0.9237681683489161 O
   0.9191108034012770    0.9197525039279534    0.2518200132546743 O
   0.9193167780782275    0.9174322843195747    0.5862385277998853 O
   0.9150321806937116    0.9195972782406250    0.9224569734180890 O
   0.0893008447841857    0.0669230836388089    0.0840991752556619 O
   0.0828499847042500    0.0729260164918112    0.4171422459778678 O
   0.0669761131383116    0.0852385864605516    0.7500011059041571 O
   0.0724355096289581    0.4031424703866708    0.0880330897394069 O
   0.0880330519180506    0.4099329217128831    0.4132535864972867 O
   0.0812903514034942    0.4196686415337174    0.7369787388368833 O
   0.0739291114315902    0.7510070839903359    0.0839329463022956 O
   0.0718133026651552    0.7535136022310649    0.4066464532229338 O
   0.0832690385072257    0.7436321639588851    0.7463864621343269 O
   0.4134856374049605    0.0769201684407467    0.0832285010879451 O
   0.4157715562213437    0.0841482708331390    0.4055828162384652 O
   0.4121118831006516    0.0860392157744850    0.7422338569133876 O
   0.4117253555613807    0.4086299762480072    0.0852970171449929 O
   0.4134234222141532    0.4068257504800745    0.4185567557053584 O
   0.4135992602294572    0.4093575425698913    0.7537613330216354 O
   0.4098063984890006    0.7459852361765308    0.0813095561302226 O
   0.4093881532385423    0.7544285984099809    0.4111288279022340 O
   0.4099736654246802    0.7487487268891897    0.7493138419218887 O
   0.7505478321821505    0.0766320437313228    0.0763664246795326 O
   0.7468705672024616    0.0755443859757283    0.4175455091447621 O
   0.7429116685397592    0.0869986397577434    0.7399994471678331 O
   0.7459233822124004    0.4095930465566802    0.0875431674734078 O
   0.7559495084497260    0.4128885369075257    0.4089665883901857 O
   0.7455665469087345    0.4184283186424633    0.7408032906898663 O
   0.7611887967498197    0.7388741707746886    0.0747101885083826 O
   0.7498624848315296    0.7479087238126088    0.4135552890935429 O
   0.7379473118073858    0.7546141359964580    0.7470783211941248 O
