Li26 Co27 O54
1.0
  14.1209132099999994   -4.2168848700000003   -0.0134986200000000
  14.1209132099999994    4.2168848700000003   -0.0134986200000000
  12.8685137100000002    0.0000000000000000    7.1821868699999998
Li Co O
26 27 54
direct
   0.0045748067405042   -0.0123231466710410    0.3378293866338078 Li
   0.0025498059196495    0.0010334435200353    0.6626806007170469 Li
   0.0067035133617820    0.3354034462506803   -0.0138741203195316 Li
   0.0028357018555894    0.3372321451447770    0.3298328198693391 Li
  -0.0038429117382441    0.3386618349213134    0.6666512988511766 Li
  -0.0078582860070382    0.6669282024654899    0.0059524011147185 Li
  -0.0081670589337187    0.6656092618682444    0.3422034913988071 Li
   0.0062815717398227    0.6655643168509424    0.6628806834324932 Li
   0.3353350508795896   -0.0020293057004393    0.0031677265584460 Li
   0.3330825396447302    0.0016598724787660    0.3334498524522737 Li
   0.3333134538331060    0.0007814356625201    0.6698664883146059 Li
   0.3389927922990053    0.3344684588175785   -0.0086644788852074 Li
   0.3410200226971567    0.3315507165912509    0.3252406280765184 Li
   0.3229790204855261    0.3365185240268876    0.6760666121568685 Li
   0.3368169805454344    0.6759991038746734   -0.0052120428360194 Li
   0.3305512141870989    0.6677013434524361    0.3400440715015560 Li
   0.3320739426537742    0.6622343812261900    0.6703441361828434 Li
   0.6661679622188318    1.0059821229744348   -0.0037154066637048 Li
   0.6674009628594282    0.0031730884004687    0.3341150515975066 Li
   0.6692808797009888    0.9961419977708488    0.6675272588705922 Li
   0.6635367214953047    0.3326227173429965    0.0050598593886327 Li
   0.6680362902682767    0.3343656563116265    0.3294822150197216 Li
   0.6674861956609595    0.3260734191851917    0.6683514795692441 Li
   0.6670214131489137    0.6679429460852888   -0.0007639967162405 Li
   0.6673022142936960    0.6648709754437234    0.3392802556943531 Li
   0.6682818414162268    0.6726825381587844    0.6588589167880274 Li
   0.1609332939981111    0.1734581699011823    0.1633743318443011 Co
   0.1656242212936250    0.1691980476425452    0.5025460072623338 Co
   0.1591806873559654    0.1670480670309779    0.8370896440632138 Co
   0.1543166290071919    0.5185199189508199    0.1633535605760153 Co
   0.1609784689399452    0.5045994438101300    0.5000641859931093 Co
   0.1704728543617594    0.4992454312611517    0.8323652661431771 Co
   0.1792873542454891    0.8275876108318321    0.1592161395798334 Co
   0.1680585837282020    0.8392293969500397    0.4941958500088179 Co
   0.1665489440832745    0.8366955681573149    0.8255180923749907 Co
   0.4927134020110262    0.1683254688843494    0.1692841458367564 Co
   0.4942753983234299    0.1732193775415575    0.5058018452572428 Co
   0.4954990347146436    0.1624604788428408    0.8386930910645537 Co
   0.5022067539591116    0.4971818018533248    0.1651349265653532 Co
   0.5037988919994820    0.4980506597076595    0.4974764715047164 Co
   0.5009674840269558    0.5014427902669214    0.8281331156743432 Co
   0.5018327649098189    0.8334081807358413    0.1642375298999949 Co
   0.4904709930184988    0.8428776619323931    0.4967126414232372 Co
   0.4974720105926216    0.8446707692457103    0.8236762917637491 Co
   0.8421309494991686    0.1600201914086133    0.1663156216641226 Co
   0.8275818981278497    0.1688537107251270    0.5040493149815098 Co
   0.8343872279468467    0.1701205728965809    0.8312813729677742 Co
   0.8265345913391127    0.5108017400899464    0.1669655428348840 Co
   0.8345502977610221    0.4905511294461407    0.5090210448455297 Co
   0.8298281529400924    0.4924503069553984    0.8433872675589751 Co
   0.8391710473633364    0.8279097196624732    0.1697376203440353 Co
   0.8182128243853499    0.8466024685231468    0.5013013195890502 Co
   0.8367262220936103    0.8339211712076844    0.8321814545725931 Co
   0.2618797353544225    0.2521844089380036    0.2440454145028919 O
   0.2632722623125123    0.2485726432315837    0.5844139480502298 O
   0.2556505441798144    0.2483575541940055    0.9204042647369725 O
   0.2439656095225840    0.5965994323524444    0.2534321750503661 O
   0.2538993413707397    0.5848698324532668    0.5901212960918306 O
   0.2569047006788412    0.5845698587289665    0.9193981758386447 O
   0.2488516683456501    0.9177771846882241    0.2599317226645044 O
   0.2559484601763624    0.9198287628930326    0.5855999323449749 O
   0.2581307014300301    0.9085661990151581    0.9256874162071200 O
   0.5808830574922728    0.2624017456939344    0.2520817432044030 O
   0.5822112870092139    0.2518122827383203    0.5944222365307907 O
   0.5891224221160193    0.2487422339057492    0.9199431722054842 O
   0.5883443804572622    0.5857845743819918    0.2489820897581507 O
   0.5851374129848165    0.5825699292029964    0.5876485500176052 O
   0.5870117982553609    0.5903408221695903    0.9133901113156481 O
   0.5820869642480291    0.9199568807705992    0.2533202994031585 O
   0.5860798703416563    0.9155129423116941    0.5937420512884176 O
   0.5843944932845933    0.9305769359084344    0.9134051372458659 O
   0.9262711083901605    0.2598160402451034    0.2450766495791359 O
   0.9156614229006068    0.2542850686283817    0.5890338829777720 O
   0.9145812816812808    0.2546034995847237    0.9259523216490823 O
   0.9220313392356706    0.5818666485694843    0.2542385522722856 O
   0.9245020556286658    0.5884109661239920    0.5805982885140486 O
   0.9231446823795093    0.5921549395702903    0.9164933443446566 O
   0.9198635129886951    0.9152134403409192    0.2559155641581812 O
   0.9161653397918375    0.9317708243706417    0.5782004001255933 O
   0.9148568161108905    0.9273241978427784    0.9187141089063420 O
   0.0732569260809469    0.0767317292698772    0.0861782253949860 O
   0.0869030919668344    0.0686787634363313    0.4148610022425994 O
   0.0830627853752954    0.0830744888809793    0.7387348694518031 O
   0.0773312632485275    0.4222675094660868    0.0769871235273976 O
   0.0813009555367367    0.4170478463833863    0.4106189943553767 O
   0.0708063140304304    0.4133940434171859    0.7553424747672352 O
   0.0741429228019122    0.7496138459520573    0.0775874833128730 O
   0.0736807297934447    0.7519482310172869    0.4119704072312021 O
   0.0803593672639027    0.7433455453024100    0.7531226637327596 O
   0.4094726808893950    0.0867309970062968    0.0742044722037543 O
   0.4223739750218004    0.0722538731702644    0.4113164023705649 O
   0.4176052670790072    0.0857534979492657    0.7344519021758364 O
   0.4199023450357229    0.4120393720615067    0.0768174742757516 O
   0.4099169891132085    0.4165002304196215    0.4102722457881718 O
   0.4153815839017596    0.4094955150234744    0.7486615389819119 O
   0.4110143064364413    0.7448268277398226    0.0809433510912633 O
   0.4075097478113862    0.7570851932169480    0.4071378581285579 O
   0.4150183816334787    0.7434667471269829    0.7468585294226321 O
   0.7519336278270713    0.0717781556878099    0.0844687060299891 O
   0.7430825185404016    0.0816164135908963    0.4125940955117107 O
   0.7523852043540220    0.0734517592270837    0.7447767628213763 O
   0.7532546036343480    0.4080534316940290    0.0783683016829801 O
   0.7500358490337551    0.4088121839685120    0.4145475875047582 O
   0.7459163183119685    0.4141869793234161    0.7471345757242343 O
   0.7485543186835780    0.7485195830774293    0.0769397727023472 O
   0.7507145398117259    0.7503440159469879    0.4062043899116978 O
   0.7530612122484438    0.7386059183901185    0.7471261123859294 O
